c number of breaking clauses added: 80
c max original variable: 767
c auxiliary variables: 27
p cnf 794 2496
375 -767 0
374 -767 0
375 -766 0
-373 -374 765 0
375 -764 0
372 -764 0
374 -763 0
-371 -375 761 0
375 -761 0
-371 -374 760 0
371 -760 0
373 -759 0
371 -759 0
372 -758 0
371 -758 0
370 -757 0
374 -756 0
370 -756 0
-370 -373 755 0
373 -755 0
372 -754 0
370 -754 0
-370 -371 753 0
369 -751 0
-369 -372 749 0
372 -749 0
369 -749 0
-369 -370 747 0
-368 -375 746 0
368 -746 0
374 -745 0
373 -744 0
372 -743 0
-367 -375 739 0
367 -737 0
372 -736 0
371 -735 0
-367 -369 733 0
367 -733 0
368 -732 0
367 -732 0
374 -730 0
366 -730 0
371 -727 0
-366 -370 726 0
366 -726 0
369 -725 0
366 -725 0
-366 -368 724 0
368 -724 0
366 -724 0
-367 -373 737 0
366 -723 0
365 -722 0
-365 -374 721 0
365 -721 0
-365 -373 720 0
-365 -372 719 0
-365 -371 718 0
371 -718 0
-365 -370 717 0
370 -717 0
365 -716 0
368 -715 0
-365 -366 713 0
366 -713 0
-364 -375 712 0
375 -712 0
-369 -371 748 0
-364 -374 711 0
364 -711 0
-364 -373 710 0
364 -710 0
372 -709 0
371 -708 0
-364 -370 707 0
-364 -369 706 0
-364 -368 705 0
368 -705 0
364 -705 0
375 -757 0
-364 -367 704 0
364 -703 0
-364 -365 702 0
364 -702 0
375 -701 0
-363 -374 700 0
374 -700 0
-363 -372 698 0
372 -698 0
-363 -371 697 0
372 -762 0
371 -697 0
363 -697 0
363 -696 0
-363 -369 695 0
-363 -367 693 0
-372 -373 762 0
363 -693 0
-363 -364 690 0
364 -690 0
362 -689 0
-362 -374 688 0
362 -688 0
-362 -373 687 0
362 -687 0
372 -686 0
362 -686 0
-362 -371 685 0
371 -685 0
-362 -370 684 0
369 -683 0
362 -683 0
-362 -368 682 0
366 -680 0
364 -678 0
362 -678 0
-363 -375 701 0
363 -677 0
362 -677 0
-361 -375 676 0
375 -676 0
-361 -374 675 0
374 -675 0
361 -675 0
361 -673 0
370 -671 0
361 -670 0
-361 -368 669 0
368 -669 0
361 -669 0
361 -668 0
361 -667 0
-361 -365 666 0
-361 -363 664 0
-362 -364 678 0
363 -664 0
-365 -375 722 0
-361 -362 663 0
362 -663 0
362 -684 0
-360 -375 662 0
360 -662 0
374 -661 0
360 -661 0
373 -660 0
360 -660 0
-360 -372 659 0
-360 -371 658 0
371 -658 0
-360 -370 657 0
370 -657 0
-360 -369 656 0
369 -656 0
360 -656 0
-360 -368 655 0
-360 -367 654 0
360 -654 0
366 -653 0
360 -653 0
-360 -364 651 0
364 -651 0
360 -651 0
-360 -363 650 0
363 -650 0
360 -650 0
-360 -362 649 0
-371 -372 758 0
362 -649 0
369 -706 0
360 -649 0
-360 -361 648 0
361 -648 0
-359 -375 647 0
375 -647 0
-359 -374 646 0
-368 -374 745 0
374 -646 0
-359 -373 645 0
359 -645 0
359 -644 0
373 -687 0
-359 -371 643 0
359 -643 0
-359 -370 642 0
359 -642 0
-359 -369 641 0
369 -641 0
359 -641 0
-359 -367 639 0
359 -639 0
-359 -366 638 0
365 -637 0
359 -637 0
-359 -364 636 0
363 -635 0
-359 -362 634 0
361 -633 0
359 -633 0
369 -695 0
360 -632 0
-358 -375 631 0
374 -630 0
367 -693 0
358 -630 0
358 -629 0
-358 -372 628 0
-359 -365 637 0
358 -628 0
-358 -371 627 0
371 -627 0
367 -704 0
358 -627 0
358 -626 0
369 -625 0
368 -624 0
358 -624 0
-358 -367 623 0
367 -623 0
358 -623 0
366 -622 0
358 -622 0
-358 -365 621 0
365 -621 0
368 -743 0
358 -621 0
-358 -364 620 0
368 -742 0
358 -620 0
-358 -362 618 0
368 -744 0
367 -681 0
-361 -370 671 0
358 -618 0
362 -682 0
361 -617 0
358 -617 0
-358 -360 616 0
-361 -364 665 0
360 -616 0
358 -616 0
375 -615 0
357 -615 0
-357 -373 613 0
373 -613 0
357 -613 0
-357 -372 612 0
357 -612 0
371 -611 0
357 -610 0
-357 -368 608 0
357 -607 0
366 -606 0
362 -685 0
-357 -365 605 0
357 -605 0
-357 -364 604 0
-357 -363 603 0
363 -603 0
357 -603 0
367 -723 0
357 -601 0
360 -600 0
357 -600 0
375 -599 0
373 -699 0
-356 -374 598 0
-356 -373 597 0
373 -597 0
-356 -371 595 0
-369 -374 751 0
-368 -372 743 0
371 -595 0
-356 -370 594 0
369 -593 0
368 -592 0
-356 -367 591 0
367 -591 0
356 -590 0
-356 -365 589 0
356 -588 0
-356 -363 587 0
363 -587 0
356 -587 0
-356 -362 586 0
-362 -367 681 0
356 -586 0
361 -585 0
356 -585 0
360 -584 0
-367 -372 736 0
-355 -375 583 0
375 -583 0
374 -582 0
355 -582 0
-355 -372 580 0
355 -580 0
-355 -371 579 0
372 -644 0
371 -579 0
-355 -370 578 0
355 -578 0
-355 -369 577 0
-355 -368 576 0
368 -576 0
355 -576 0
366 -574 0
355 -574 0
365 -720 0
-355 -365 573 0
365 -573 0
-355 -364 572 0
364 -636 0
363 -571 0
355 -570 0
362 -634 0
361 -569 0
-355 -360 568 0
370 -696 0
360 -568 0
355 -568 0
354 -567 0
-354 -374 566 0
369 -748 0
374 -566 0
-354 -373 565 0
-354 -372 564 0
354 -564 0
372 -628 0
371 -563 0
354 -563 0
-354 -370 562 0
354 -562 0
-354 -369 561 0
-356 -360 584 0
354 -560 0
367 -559 0
354 -559 0
-354 -366 558 0
366 -558 0
354 -558 0
-354 -365 557 0
360 -652 0
-354 -364 556 0
354 -556 0
-354 -363 555 0
364 -620 0
363 -555 0
354 -555 0
-354 -361 553 0
362 -618 0
361 -553 0
354 -553 0
360 -552 0
354 -552 0
-353 -375 551 0
-353 -374 550 0
374 -550 0
353 -550 0
-368 -373 744 0
373 -549 0
-353 -372 548 0
-353 -371 547 0
353 -547 0
-353 -370 546 0
353 -546 0
370 -610 0
369 -545 0
353 -545 0
368 -544 0
353 -544 0
-353 -367 543 0
367 -543 0
353 -543 0
353 -542 0
-365 -368 715 0
365 -541 0
353 -541 0
-353 -364 540 0
353 -540 0
353 -539 0
-353 -361 537 0
360 -536 0
353 -536 0
-352 -375 535 0
-371 -373 759 0
375 -535 0
352 -535 0
-352 -374 534 0
369 -716 0
374 -534 0
352 -533 0
352 -532 0
363 -690 0
-352 -371 531 0
352 -531 0
-352 -370 530 0
352 -530 0
-352 -369 529 0
352 -529 0
368 -528 0
352 -528 0
352 -527 0
366 -526 0
352 -526 0
365 -525 0
352 -525 0
-352 -364 524 0
352 -524 0
-352 -363 523 0
352 -522 0
-352 -361 521 0
362 -586 0
361 -521 0
-355 -362 570 0
352 -521 0
352 -520 0
351 -519 0
-351 -374 518 0
-355 -361 569 0
351 -518 0
-351 -373 517 0
351 -517 0
-351 -372 516 0
351 -516 0
-351 -371 515 0
-357 -360 600 0
-353 -365 541 0
351 -515 0
-351 -370 514 0
-358 -369 625 0
351 -514 0
351 -513 0
363 -694 0
368 -512 0
351 -512 0
-365 -367 714 0
-351 -367 511 0
351 -511 0
351 -510 0
-351 -365 509 0
365 -509 0
359 -647 0
-351 -364 508 0
-351 -363 507 0
351 -507 0
362 -570 0
361 -505 0
360 -504 0
351 -504 0
-350 -375 503 0
371 -748 0
375 -503 0
350 -503 0
350 -502 0
-350 -373 501 0
350 -501 0
-352 -373 533 0
350 -500 0
372 -564 0
371 -499 0
350 -499 0
359 -635 0
-350 -370 498 0
350 -498 0
-350 -369 497 0
370 -562 0
369 -497 0
350 -497 0
350 -496 0
-350 -367 495 0
-352 -372 532 0
367 -495 0
350 -495 0
361 -676 0
366 -494 0
-350 -365 493 0
365 -493 0
350 -493 0
350 -492 0
-358 -370 626 0
-350 -363 491 0
350 -490 0
362 -554 0
361 -489 0
350 -489 0
350 -488 0
349 -487 0
349 -486 0
349 -485 0
349 -484 0
372 -548 0
371 -483 0
371 -742 0
349 -483 0
349 -482 0
370 -546 0
369 -481 0
-349 -368 480 0
-355 -374 582 0
368 -480 0
349 -480 0
360 -648 0
-349 -367 479 0
367 -479 0
349 -479 0
-349 -366 478 0
349 -478 0
351 -508 0
365 -477 0
375 -487 0
349 -477 0
349 -476 0
365 -719 0
-349 -363 475 0
354 -554 0
364 -540 0
363 -475 0
349 -474 0
-349 -361 473 0
349 -473 0
360 -472 0
-363 -373 699 0
-348 -375 471 0
375 -471 0
-348 -374 470 0
374 -470 0
348 -470 0
-348 -373 469 0
348 -469 0
-348 -372 468 0
-348 -371 467 0
-361 -371 672 0
357 -602 0
372 -532 0
371 -467 0
349 -475 0
-348 -370 466 0
348 -466 0
-348 -369 465 0
364 -709 0
368 -464 0
348 -464 0
-370 -372 754 0
367 -463 0
351 -509 0
-348 -366 462 0
348 -462 0
355 -572 0
-348 -365 461 0
365 -461 0
-358 -363 619 0
348 -460 0
348 -458 0
362 -522 0
361 -457 0
-349 -369 481 0
-348 -360 456 0
360 -456 0
348 -456 0
-347 -374 454 0
374 -454 0
368 -655 0
-347 -373 453 0
347 -453 0
347 -452 0
347 -451 0
347 -450 0
-347 -369 449 0
-347 -368 448 0
-359 -372 644 0
368 -448 0
347 -448 0
348 -468 0
-347 -367 447 0
347 -447 0
-347 -366 446 0
-353 -366 542 0
347 -446 0
365 -445 0
347 -444 0
364 -508 0
363 -443 0
347 -443 0
-347 -362 442 0
347 -442 0
347 -441 0
-347 -360 440 0
-357 -361 601 0
347 -440 0
-346 -375 439 0
375 -439 0
-346 -373 437 0
-346 -372 436 0
372 -436 0
-346 -371 435 0
-350 -364 492 0
-346 -370 434 0
346 -434 0
346 -433 0
-346 -368 432 0
368 -432 0
346 -432 0
-346 -367 431 0
367 -431 0
366 -430 0
-346 -365 429 0
365 -429 0
-346 -362 426 0
360 -424 0
-345 -375 423 0
372 -763 0
375 -423 0
345 -423 0
374 -422 0
-345 -373 421 0
372 -420 0
-345 -370 418 0
370 -418 0
-345 -369 417 0
356 -592 0
345 -417 0
-345 -368 416 0
-355 -373 581 0
368 -416 0
367 -415 0
371 -753 0
-345 -365 413 0
-345 -364 412 0
368 -496 0
-345 -363 411 0
364 -476 0
363 -411 0
-345 -362 410 0
362 -410 0
-345 -361 409 0
362 -474 0
361 -409 0
-345 -360 408 0
344 -407 0
374 -406 0
344 -406 0
373 -405 0
-349 -362 474 0
344 -405 0
351 -505 0
-344 -372 404 0
372 -468 0
371 -403 0
344 -403 0
-344 -370 402 0
366 -727 0
370 -466 0
369 -401 0
344 -401 0
368 -400 0
344 -400 0
364 -707 0
367 -399 0
366 -692 0
344 -399 0
366 -590 0
352 -523 0
-344 -366 398 0
366 -398 0
344 -398 0
344 -397 0
-344 -364 396 0
344 -396 0
364 -588 0
-352 -367 527 0
363 -523 0
-344 -363 395 0
373 -517 0
364 -460 0
363 -395 0
344 -395 0
-344 -362 394 0
-347 -371 451 0
362 -394 0
366 -703 0
-357 -369 609 0
344 -394 0
347 -454 0
-346 -369 433 0
-344 -361 393 0
344 -393 0
344 -392 0
-343 -375 391 0
-367 -371 735 0
-348 -363 459 0
375 -391 0
366 -667 0
343 -391 0
374 -390 0
-365 -369 716 0
365 -605 0
343 -390 0
343 -389 0
372 -388 0
343 -388 0
372 -452 0
371 -387 0
343 -386 0
343 -385 0
-343 -368 384 0
368 -384 0
343 -384 0
-343 -367 383 0
367 -383 0
343 -383 0
-343 -366 382 0
366 -382 0
365 -381 0
343 -381 0
-343 -364 380 0
343 -380 0
373 -674 0
-343 -363 379 0
359 -640 0
373 -533 0
364 -444 0
363 -379 0
343 -379 0
-343 -362 378 0
-354 -362 554 0
-351 -361 505 0
343 -378 0
-363 -366 692 0
-343 -361 377 0
362 -442 0
361 -377 0
343 -377 0
343 -376 0
-6 -12 -18 342 0
-349 -365 477 0
12 -342 0
-6 -12 -17 341 0
-6 -12 -15 339 0
12 -339 0
-6 -12 -14 338 0
362 -506 0
361 -441 0
14 -338 0
-6 -12 -13 337 0
13 -337 0
359 -638 0
17 -335 0
11 -335 0
-372 -375 764 0
6 -335 0
-347 -361 441 0
-6 -11 -16 334 0
-6 -11 -15 333 0
-350 -372 500 0
15 -333 0
11 -333 0
6 -333 0
-6 -11 -14 332 0
14 -332 0
-6 -11 -13 331 0
13 -331 0
11 -331 0
6 -331 0
375 -551 0
10 -330 0
6 -330 0
-6 -10 -17 329 0
10 -329 0
6 -329 0
-6 -10 -16 328 0
16 -328 0
10 -328 0
-6 -10 -15 327 0
15 -327 0
-366 -367 723 0
10 -327 0
6 -327 0
-6 -10 -14 326 0
10 -326 0
370 -482 0
369 -417 0
6 -326 0
-6 -10 -13 325 0
10 -325 0
365 -679 0
6 -325 0
-368 -369 740 0
-6 -9 -18 324 0
18 -324 0
6 -324 0
-6 -10 -18 330 0
9 -323 0
-6 -9 -16 322 0
9 -322 0
6 -322 0
352 -534 0
-6 -9 -15 321 0
15 -321 0
9 -321 0
6 -321 0
353 -538 0
-6 -9 -14 320 0
6 -320 0
-6 -9 -13 319 0
6 -319 0
-6 -8 -18 318 0
8 -318 0
6 -318 0
-6 -8 -17 317 0
360 -488 0
8 -317 0
6 -317 0
375 -455 0
-6 -8 -16 316 0
8 -316 0
6 -316 0
375 -519 0
-6 -8 -15 315 0
362 -681 0
6 -315 0
14 -314 0
8 -314 0
362 -680 0
6 -314 0
-349 -360 472 0
347 -445 0
-6 -8 -13 313 0
13 -313 0
368 -682 0
8 -313 0
-346 -374 438 0
18 -312 0
7 -312 0
6 -312 0
-6 -7 -17 311 0
16 -310 0
6 -310 0
-6 -7 -15 309 0
7 -309 0
-6 -7 -14 308 0
14 -308 0
6 -308 0
7 -307 0
-5 -12 -18 306 0
12 -306 0
12 -305 0
5 -305 0
-5 -12 -16 304 0
373 -501 0
364 -412 0
16 -304 0
361 -672 0
5 -304 0
368 -745 0
358 -619 0
372 -484 0
371 -419 0
-5 -12 -15 303 0
15 -303 0
12 -303 0
-5 -12 -14 302 0
14 -302 0
12 -302 0
13 -301 0
12 -301 0
363 -692 0
367 -447 0
-5 -11 -18 300 0
18 -300 0
367 -511 0
-5 -11 -17 299 0
11 -299 0
361 -663 0
5 -299 0
356 -584 0
-5 -11 -16 298 0
369 -752 0
16 -298 0
11 -298 0
15 -297 0
11 -297 0
5 -297 0
14 -296 0
361 -664 0
-348 -361 457 0
5 -296 0
-354 -367 559 0
-5 -11 -13 295 0
13 -295 0
11 -295 0
-351 -366 510 0
5 -295 0
12 -341 0
18 -294 0
10 -294 0
-358 -368 624 0
5 -294 0
14 -320 0
-5 -10 -17 293 0
367 -734 0
10 -293 0
-343 -370 386 0
5 -293 0
16 -292 0
367 -735 0
10 -292 0
367 -736 0
10 -291 0
5 -291 0
-5 -10 -14 290 0
348 -463 0
14 -290 0
10 -290 0
5 -290 0
13 -289 0
10 -289 0
5 -289 0
-5 -9 -18 288 0
353 -548 0
-5 -9 -17 287 0
355 -571 0
17 -287 0
-351 -362 506 0
9 -287 0
-363 -368 694 0
5 -287 0
374 -518 0
16 -286 0
-5 -9 -15 285 0
15 -285 0
9 -285 0
5 -285 0
-5 -9 -14 284 0
14 -284 0
366 -462 0
5 -284 0
-5 -9 -13 283 0
13 -283 0
365 -714 0
5 -283 0
365 -652 0
-345 -372 420 0
344 -404 0
-5 -8 -18 282 0
8 -282 0
-370 -374 756 0
365 -718 0
-358 -373 629 0
-5 -8 -17 281 0
-349 -364 476 0
8 -281 0
367 -654 0
-358 -374 630 0
-345 -374 422 0
-5 -8 -16 280 0
8 -280 0
365 -715 0
5 -280 0
372 -404 0
-5 -8 -15 279 0
15 -279 0
370 -498 0
369 -433 0
6 -342 0
5 -279 0
-5 -8 -14 278 0
14 -278 0
8 -278 0
5 -278 0
-5 -8 -13 277 0
6 -340 0
5 -277 0
11 -336 0
18 -276 0
6 -341 0
5 -276 0
7 -275 0
6 -338 0
5 -275 0
-360 -365 652 0
359 -634 0
-357 -371 611 0
16 -274 0
370 -626 0
369 -561 0
7 -274 0
6 -339 0
5 -274 0
9 -319 0
-5 -7 -15 273 0
348 -457 0
15 -273 0
7 -273 0
6 -336 0
5 -273 0
368 -740 0
-5 -7 -14 272 0
7 -272 0
-356 -366 590 0
-353 -369 545 0
13 -271 0
-360 -366 653 0
7 -271 0
365 -702 0
6 -334 0
5 -271 0
-4 -12 -18 270 0
11 -334 0
18 -270 0
12 -270 0
370 -726 0
-4 -12 -17 269 0
347 -455 0
12 -269 0
12 -304 0
-4 -12 -16 268 0
359 -636 0
17 -329 0
16 -268 0
373 -750 0
12 -268 0
-4 -12 -15 267 0
12 -267 0
-4 -12 -14 266 0
14 -266 0
12 -266 0
-4 -12 -13 265 0
-368 -371 742 0
13 -265 0
-4 -11 -18 264 0
11 -263 0
372 -516 0
371 -451 0
-4 -11 -16 262 0
369 -740 0
16 -262 0
4 -262 0
372 -580 0
371 -515 0
9 -284 0
-4 -11 -15 261 0
11 -261 0
346 -430 0
4 -261 0
-367 -368 732 0
-5 -7 -13 271 0
14 -260 0
346 -425 0
4 -260 0
362 -490 0
361 -425 0
13 -259 0
-350 -371 499 0
11 -259 0
346 -424 0
4 -259 0
-4 -10 -18 258 0
10 -258 0
367 -738 0
10 -257 0
-350 -366 494 0
346 -426 0
4 -257 0
-4 -10 -16 256 0
-366 -372 728 0
373 -485 0
364 -428 0
17 -341 0
16 -256 0
367 -739 0
10 -256 0
346 -437 0
4 -256 0
348 -471 0
15 -255 0
357 -614 0
362 -426 0
-6 -7 -18 312 0
10 -255 0
346 -436 0
4 -255 0
366 -729 0
-354 -375 567 0
-4 -10 -14 254 0
15 -339 0
14 -254 0
10 -254 0
346 -431 0
4 -254 0
354 -557 0
-4 -10 -13 253 0
-366 -371 727 0
13 -253 0
10 -253 0
346 -438 0
4 -253 0
-4 -9 -18 252 0
18 -252 0
-347 -365 445 0
9 -252 0
4 -252 0
9 -251 0
4 -251 0
16 -250 0
357 -608 0
9 -250 0
-345 -367 415 0
-4 -9 -15 249 0
15 -249 0
357 -611 0
9 -249 0
370 -450 0
369 -385 0
-4 -9 -14 248 0
14 -248 0
357 -606 0
9 -248 0
-4 -9 -13 247 0
13 -247 0
357 -609 0
9 -247 0
-366 -369 725 0
-4 -8 -18 246 0
8 -246 0
8 -245 0
-4 -8 -16 244 0
17 -305 0
16 -244 0
-356 -361 585 0
8 -244 0
-361 -373 674 0
15 -243 0
8 -243 0
-4 -8 -14 242 0
14 -242 0
8 -242 0
-357 -366 606 0
356 -597 0
345 -420 0
4 -242 0
-4 -8 -13 241 0
13 -241 0
8 -241 0
345 -409 0
4 -241 0
7 -240 0
17 -239 0
7 -239 0
370 -747 0
374 -502 0
17 -263 0
16 -238 0
7 -238 0
356 -593 0
345 -416 0
4 -238 0
-366 -374 730 0
366 -414 0
-4 -7 -15 237 0
369 -750 0
15 -237 0
-4 -7 -17 239 0
7 -237 0
361 -666 0
365 -413 0
5 -298 0
-4 -7 -14 236 0
353 -549 0
15 -261 0
14 -236 0
356 -591 0
345 -418 0
4 -236 0
-4 -7 -13 235 0
13 -235 0
-352 -368 528 0
7 -235 0
356 -594 0
345 -415 0
4 -235 0
18 -234 0
370 -734 0
12 -234 0
374 -711 0
-349 -374 486 0
-3 -12 -17 233 0
369 -670 0
12 -233 0
-349 -375 487 0
-3 -12 -16 232 0
-356 -369 593 0
355 -573 0
16 -232 0
12 -232 0
360 -655 0
15 -231 0
12 -231 0
368 -560 0
-3 -12 -14 230 0
14 -230 0
12 -230 0
13 -229 0
373 -389 0
12 -229 0
-3 -11 -18 228 0
-370 -375 757 0
18 -228 0
-354 -368 560 0
11 -228 0
-3 -11 -17 227 0
373 -710 0
-351 -375 519 0
11 -227 0
-3 -11 -16 226 0
355 -575 0
16 -226 0
373 -729 0
-6 -8 -14 314 0
11 -226 0
-374 -375 767 0
-3 -11 -15 225 0
360 -657 0
373 -453 0
-344 -374 406 0
364 -396 0
15 -225 0
-6 -12 -16 340 0
11 -225 0
6 -309 0
-3 -11 -14 224 0
14 -224 0
11 -224 0
-3 -11 -13 223 0
13 -223 0
11 -223 0
-3 -10 -18 222 0
18 -222 0
371 -672 0
10 -222 0
-3 -10 -17 221 0
10 -221 0
-347 -370 450 0
3 -221 0
-372 -374 763 0
-3 -10 -16 220 0
355 -569 0
17 -281 0
16 -220 0
10 -220 0
3 -220 0
-3 -10 -15 219 0
360 -659 0
15 -219 0
371 -643 0
10 -219 0
3 -219 0
364 -704 0
-3 -10 -14 218 0
-359 -360 632 0
14 -218 0
10 -218 0
3 -218 0
-3 -10 -13 217 0
13 -217 0
367 -714 0
10 -217 0
360 -392 0
3 -217 0
-3 -9 -18 216 0
11 -260 0
18 -216 0
9 -216 0
3 -216 0
9 -215 0
3 -215 0
364 -706 0
-3 -9 -16 214 0
370 -755 0
-358 -361 617 0
18 -336 0
16 -214 0
9 -214 0
-3 -9 -15 213 0
15 -213 0
9 -213 0
346 -439 0
3 -213 0
374 -721 0
-3 -9 -14 212 0
348 -461 0
14 -212 0
-353 -368 544 0
9 -212 0
-3 -9 -13 211 0
13 -211 0
9 -211 0
3 -211 0
12 -337 0
18 -210 0
8 -210 0
3 -210 0
369 -747 0
-3 -8 -17 209 0
8 -209 0
3 -209 0
-360 -374 661 0
-3 -8 -16 208 0
373 -469 0
364 -380 0
16 -208 0
8 -208 0
-346 -364 428 0
3 -208 0
349 -481 0
-3 -8 -15 207 0
359 -646 0
374 -598 0
15 -207 0
368 -640 0
8 -207 0
3 -207 0
6 -323 0
-3 -8 -14 206 0
348 -467 0
14 -206 0
8 -206 0
4 -269 0
3 -206 0
373 -737 0
12 -265 0
-3 -8 -13 205 0
13 -205 0
367 -575 0
8 -205 0
4 -270 0
3 -205 0
-3 -7 -18 204 0
18 -204 0
4 -267 0
3 -204 0
-3 -7 -17 203 0
7 -203 0
-367 -370 734 0
4 -268 0
3 -203 0
374 -738 0
-3 -7 -16 202 0
16 -202 0
7 -202 0
17 -317 0
-3 -7 -15 201 0
15 -201 0
7 -201 0
346 -427 0
360 -408 0
4 -266 0
3 -201 0
358 -625 0
-3 -7 -14 200 0
-359 -361 633 0
14 -200 0
7 -200 0
349 -472 0
-3 -7 -13 199 0
15 -315 0
13 -199 0
7 -199 0
346 -429 0
4 -264 0
3 -199 0
-2 -12 -18 198 0
12 -198 0
-2 -12 -17 197 0
17 -197 0
12 -197 0
-2 -12 -16 196 0
370 -741 0
17 -257 0
16 -196 0
12 -196 0
-360 -373 660 0
-2 -12 -15 195 0
17 -323 0
15 -195 0
12 -195 0
350 -494 0
-2 -12 -14 194 0
-5 -7 -18 276 0
14 -194 0
12 -194 0
373 -581 0
-2 -12 -13 193 0
-5 -10 -18 294 0
13 -193 0
347 -449 0
-2 -11 -18 192 0
-356 -375 599 0
11 -192 0
-2 -11 -17 191 0
17 -191 0
373 -762 0
11 -191 0
-373 -375 766 0
-2 -11 -16 190 0
374 -486 0
16 -190 0
373 -765 0
11 -190 0
2 -190 0
-362 -365 679 0
361 -601 0
-2 -11 -15 189 0
15 -189 0
11 -189 0
2 -189 0
-2 -11 -14 188 0
16 -340 0
14 -188 0
11 -188 0
2 -188 0
-2 -11 -13 187 0
13 -187 0
373 -766 0
11 -187 0
2 -187 0
-2 -10 -18 186 0
18 -186 0
10 -186 0
2 -186 0
12 -338 0
-2 -10 -17 185 0
370 -530 0
369 -465 0
10 -185 0
2 -185 0
16 -184 0
-6 -7 -16 310 0
10 -184 0
2 -184 0
365 -691 0
6 -337 0
5 -272 0
-2 -10 -15 183 0
15 -183 0
10 -183 0
2 -183 0
-2 -10 -14 182 0
-367 -374 738 0
14 -182 0
10 -182 0
-357 -367 607 0
2 -182 0
363 -695 0
-2 -10 -13 181 0
13 -181 0
-350 -374 502 0
10 -181 0
2 -181 0
359 -632 0
-353 -362 538 0
16 -280 0
-2 -9 -18 180 0
18 -180 0
-2 -10 -16 184 0
2 -180 0
13 -277 0
-2 -9 -17 179 0
-343 -372 388 0
17 -179 0
9 -179 0
2 -179 0
-350 -368 496 0
16 -178 0
9 -178 0
2 -178 0
7 -308 0
-2 -9 -15 177 0
373 -437 0
-6 -7 -13 307 0
15 -177 0
9 -177 0
2 -177 0
346 -435 0
4 -258 0
-2 -9 -14 176 0
14 -176 0
372 -728 0
362 -602 0
361 -537 0
9 -176 0
3 -231 0
2 -176 0
366 -728 0
-2 -9 -13 175 0
353 -551 0
16 -322 0
13 -175 0
9 -175 0
3 -232 0
2 -175 0
18 -318 0
-2 -8 -18 174 0
354 -566 0
8 -174 0
360 -440 0
3 -233 0
2 -174 0
354 -561 0
8 -173 0
3 -234 0
2 -173 0
368 -741 0
-2 -8 -16 172 0
17 -233 0
16 -172 0
3 -227 0
2 -172 0
13 -325 0
-2 -8 -15 171 0
17 -299 0
15 -171 0
8 -171 0
3 -228 0
2 -171 0
374 -765 0
-354 -371 563 0
-2 -8 -14 170 0
14 -170 0
364 -524 0
-351 -369 513 0
363 -459 0
8 -170 0
3 -229 0
2 -170 0
-2 -8 -13 169 0
13 -169 0
354 -565 0
8 -169 0
3 -230 0
2 -169 0
-5 -10 -13 289 0
-2 -7 -18 168 0
-344 -368 400 0
18 -168 0
7 -168 0
3 -223 0
2 -168 0
-2 -7 -17 167 0
3 -222 0
17 -167 0
7 -167 0
-2 -7 -16 166 0
18 -288 0
16 -166 0
7 -166 0
3 -225 0
2 -166 0
-2 -7 -15 165 0
355 -577 0
15 -165 0
7 -165 0
-3 -9 -17 215 0
-2 -7 -14 164 0
14 -164 0
7 -164 0
2 -164 0
371 -761 0
-2 -7 -13 163 0
13 -163 0
7 -163 0
374 -688 0
-1 -12 -18 162 0
18 -162 0
12 -162 0
375 -567 0
-1 -12 -17 161 0
12 -161 0
-362 -369 683 0
1 -161 0
375 -631 0
-1 -12 -16 160 0
360 -520 0
12 -160 0
1 -160 0
-1 -12 -15 159 0
-346 -363 427 0
-344 -373 405 0
17 -311 0
15 -159 0
12 -159 0
375 -731 0
365 -589 0
1 -159 0
-1 -12 -14 158 0
14 -158 0
370 -642 0
369 -577 0
12 -158 0
-347 -364 444 0
1 -158 0
372 -612 0
371 -547 0
14 -326 0
-1 -12 -13 157 0
15 -309 0
13 -157 0
12 -157 0
1 -157 0
18 -156 0
370 -707 0
11 -156 0
1 -156 0
363 -698 0
-1 -11 -17 155 0
11 -296 0
17 -155 0
11 -155 0
-4 -9 -16 250 0
1 -155 0
-1 -11 -16 154 0
16 -154 0
11 -154 0
1 -154 0
6 -328 0
-1 -11 -15 153 0
370 -753 0
-357 -370 610 0
17 -269 0
15 -153 0
373 -720 0
11 -153 0
-351 -360 504 0
1 -153 0
-362 -372 686 0
-1 -11 -14 152 0
-359 -368 640 0
14 -152 0
11 -152 0
1 -152 0
348 -459 0
15 -267 0
13 -151 0
11 -151 0
1 -151 0
-5 -10 -16 292 0
18 -150 0
10 -150 0
-355 -366 574 0
1 -150 0
9 -283 0
-1 -10 -17 149 0
-347 -363 443 0
-6 -11 -18 336 0
10 -149 0
1 -149 0
-346 -360 424 0
-1 -10 -16 148 0
17 -209 0
16 -148 0
10 -148 0
370 -578 0
369 -513 0
1 -148 0
-348 -367 463 0
-1 -10 -15 147 0
-5 -12 -13 301 0
17 -275 0
15 -147 0
10 -147 0
1 -147 0
-1 -10 -14 146 0
14 -146 0
10 -146 0
1 -146 0
348 -465 0
13 -145 0
10 -145 0
375 -407 0
18 -144 0
358 -631 0
362 -378 0
9 -144 0
-346 -361 425 0
1 -144 0
-366 -375 731 0
-1 -9 -17 143 0
-5 -11 -14 296 0
17 -143 0
-5 -10 -15 291 0
9 -143 0
1 -143 0
366 -542 0
351 -506 0
-1 -9 -16 142 0
355 -579 0
16 -142 0
9 -142 0
1 -142 0
-1 -9 -15 141 0
18 -330 0
15 -141 0
9 -141 0
1 -141 0
-1 -9 -14 140 0
14 -140 0
372 -500 0
371 -435 0
9 -140 0
1 -140 0
-1 -9 -13 139 0
16 -334 0
13 -139 0
-353 -363 539 0
9 -139 0
1 -139 0
-4 -11 -17 263 0
18 -138 0
364 -556 0
363 -491 0
8 -138 0
-352 -365 525 0
1 -138 0
12 -340 0
-1 -8 -17 137 0
8 -137 0
1 -137 0
14 -272 0
-1 -8 -16 136 0
-2 -8 -17 173 0
16 -136 0
8 -136 0
1 -136 0
15 -135 0
8 -135 0
1 -135 0
1 -145 0
-1 -8 -14 134 0
14 -134 0
-5 -9 -16 286 0
8 -134 0
2 -197 0
1 -134 0
-361 -366 667 0
16 -316 0
13 -133 0
8 -133 0
2 -198 0
1 -133 0
-1 -7 -18 132 0
18 -132 0
370 -594 0
369 -529 0
2 -195 0
1 -132 0
-1 -7 -17 131 0
17 -131 0
7 -131 0
-1 -7 -16 130 0
16 -130 0
7 -130 0
2 -193 0
1 -130 0
373 -421 0
18 -342 0
15 -129 0
-357 -362 602 0
7 -129 0
375 -689 0
2 -194 0
1 -129 0
-1 -7 -14 128 0
14 -128 0
2 -191 0
1 -128 0
18 -174 0
-1 -7 -13 127 0
13 -127 0
7 -127 0
365 -557 0
2 -192 0
1 -127 0
-12 -18 126 0
18 -126 0
369 -609 0
12 -126 0
7 -132 0
-12 -17 125 0
17 -125 0
12 -125 0
-2 -9 -16 178 0
-12 -16 124 0
17 -185 0
16 -124 0
-368 -370 741 0
-6 -9 -17 323 0
12 -124 0
366 -638 0
-12 -15 123 0
17 -251 0
15 -123 0
12 -123 0
-12 -14 122 0
14 -122 0
7 -310 0
12 -122 0
356 -596 0
345 -421 0
4 -237 0
-12 -13 121 0
13 -121 0
-369 -375 752 0
7 -311 0
12 -121 0
366 -510 0
-11 -18 120 0
18 -120 0
11 -120 0
366 -446 0
-11 -17 119 0
372 -659 0
17 -119 0
11 -119 0
363 -691 0
-11 -16 118 0
11 -300 0
18 -240 0
16 -118 0
11 -118 0
-11 -15 117 0
-343 -373 389 0
18 -306 0
15 -117 0
5 -281 0
-11 -14 116 0
-369 -373 750 0
14 -116 0
374 -438 0
11 -116 0
13 -115 0
370 -684 0
11 -115 0
373 -629 0
-10 -18 114 0
-364 -372 709 0
18 -114 0
5 -302 0
10 -114 0
373 -565 0
-10 -17 113 0
17 -113 0
5 -303 0
10 -113 0
-10 -16 112 0
18 -198 0
16 -112 0
366 -478 0
5 -300 0
10 -112 0
350 -491 0
-10 -15 111 0
18 -264 0
15 -111 0
361 -665 0
5 -301 0
10 -111 0
11 -117 0
-10 -14 110 0
14 -110 0
-10 -13 109 0
13 -109 0
361 -671 0
10 -109 0
374 -760 0
-5 -7 -16 274 0
12 -193 0
-9 -18 108 0
-349 -370 482 0
18 -108 0
-361 -367 668 0
-9 -17 107 0
-349 -371 483 0
17 -107 0
9 -107 0
9 -180 0
-9 -16 106 0
16 -106 0
370 -514 0
369 -449 0
-343 -371 387 0
9 -106 0
-9 -15 105 0
-356 -368 592 0
-355 -367 575 0
17 -221 0
15 -105 0
365 -713 0
9 -105 0
-3 -8 -18 210 0
-9 -14 104 0
-347 -372 452 0
9 -286 0
14 -104 0
9 -104 0
-352 -360 520 0
13 -103 0
9 -103 0
367 -639 0
7 -204 0
-8 -18 102 0
18 -102 0
8 -102 0
-8 -17 101 0
17 -101 0
8 -101 0
-8 -16 100 0
2 -163 0
17 -161 0
16 -100 0
-8 -15 99 0
17 -227 0
15 -99 0
8 -99 0
362 -458 0
361 -393 0
9 -288 0
14 -98 0
364 -708 0
-363 -370 696 0
8 -98 0
-8 -13 97 0
13 -97 0
8 -97 0
-7 -18 96 0
-350 -361 489 0
18 -96 0
7 -96 0
-349 -373 485 0
-9 -13 103 0
-7 -17 95 0
-353 -373 549 0
-348 -362 458 0
17 -95 0
7 -95 0
-349 -372 484 0
-7 -16 94 0
-366 -373 729 0
16 -94 0
7 -94 0
-7 -15 93 0
18 -282 0
15 -93 0
7 -93 0
375 -739 0
-7 -14 92 0
-344 -371 403 0
14 -92 0
7 -92 0
-7 -13 91 0
13 -91 0
364 -572 0
363 -507 0
7 -91 0
-3 -12 -18 234 0
8 -172 0
-1 -9 -18 144 0
-6 -18 90 0
18 -90 0
-4 -11 -14 260 0
6 -90 0
-6 -17 89 0
17 -89 0
6 -89 0
9 -108 0
-6 -16 88 0
16 -88 0
6 -88 0
-6 -15 87 0
11 -332 0
15 -87 0
6 -87 0
-6 -14 86 0
14 -86 0
6 -86 0
-6 -13 85 0
13 -85 0
6 -85 0
-352 -366 526 0
343 -387 0
370 -386 0
-5 -18 84 0
18 -84 0
372 -719 0
17 -83 0
5 -83 0
369 -733 0
360 -658 0
-5 -16 82 0
16 -82 0
-344 -367 399 0
-5 -15 81 0
355 -581 0
17 -293 0
15 -81 0
-4 -11 -13 259 0
5 -81 0
-5 -14 80 0
-1 -8 -15 135 0
14 -80 0
5 -80 0
375 -662 0
-358 -366 622 0
13 -79 0
5 -79 0
343 -382 0
-1 -10 -18 150 0
-4 -18 78 0
18 -78 0
4 -78 0
17 -245 0
16 -160 0
-4 -17 77 0
17 -77 0
367 -668 0
-344 -375 407 0
4 -77 0
18 -246 0
-4 -16 76 0
17 -137 0
16 -76 0
4 -76 0
-357 -375 615 0
362 -538 0
361 -473 0
-4 -15 75 0
355 -583 0
17 -203 0
15 -75 0
4 -75 0
14 -74 0
-3 -12 -15 231 0
4 -74 0
-4 -13 73 0
13 -73 0
-4 -7 -16 238 0
4 -73 0
-3 -18 72 0
18 -72 0
3 -72 0
7 -128 0
-3 -17 71 0
-361 -369 670 0
17 -71 0
3 -71 0
-3 -16 70 0
18 -192 0
16 -70 0
-4 -10 -17 257 0
3 -70 0
-3 -15 69 0
-5 -7 -17 275 0
18 -258 0
15 -69 0
-4 -10 -15 255 0
3 -69 0
-3 -14 68 0
14 -68 0
-1 -7 -15 129 0
3 -68 0
374 -751 0
-3 -13 67 0
9 -320 0
13 -67 0
3 -67 0
-344 -369 401 0
-2 -18 66 0
-362 -375 689 0
18 -66 0
2 -66 0
-348 -364 460 0
-2 -17 65 0
372 -673 0
-4 -8 -15 243 0
17 -65 0
2 -65 0
-2 -16 64 0
11 -262 0
17 -149 0
16 -64 0
345 -414 0
4 -248 0
2 -64 0
364 -665 0
-344 -360 392 0
-2 -15 63 0
-4 -8 -17 245 0
17 -215 0
15 -63 0
-359 -363 635 0
345 -411 0
4 -247 0
2 -63 0
-344 -365 397 0
-2 -14 62 0
345 -412 0
4 -250 0
2 -62 0
-2 -13 61 0
13 -61 0
4 -249 0
2 -61 0
-357 -374 614 0
13 -307 0
-4 -14 74 0
-1 -18 60 0
18 -60 0
4 -243 0
1 -60 0
-1 -17 59 0
17 -59 0
356 -599 0
345 -410 0
4 -244 0
1 -59 0
-364 -366 703 0
2 -196 0
1 -131 0
-1 -16 58 0
11 -264 0
16 -58 0
345 -413 0
4 -245 0
1 -58 0
6 -311 0
-1 -15 57 0
17 -173 0
15 -57 0
345 -408 0
-5 -12 -17 305 0
4 -246 0
1 -57 0
364 -604 0
363 -539 0
-1 -14 56 0
357 -604 0
14 -56 0
356 -598 0
345 -419 0
4 -239 0
1 -56 0
-1 -13 55 0
-361 -372 673 0
372 -596 0
371 -531 0
13 -55 0
356 -595 0
345 -422 0
4 -240 0
1 -55 0
374 -614 0
-6 -12 54 0
8 -315 0
12 -54 0
375 -752 0
370 -402 0
6 -54 0
13 -319 0
-6 -11 53 0
11 -53 0
6 -53 0
-6 -10 52 0
362 -679 0
6 -313 0
10 -52 0
6 -52 0
-6 -9 51 0
-3 -12 -13 229 0
9 -51 0
6 -51 0
-6 -8 50 0
346 -428 0
4 -263 0
3 -200 0
8 -50 0
6 -50 0
-1 -11 -18 156 0
-6 -7 49 0
7 -49 0
6 -49 0
-5 -12 48 0
367 -607 0
7 -236 0
12 -48 0
5 -48 0
-5 -11 47 0
11 -47 0
-4 -7 -18 240 0
5 -47 0
-5 -10 46 0
-364 -371 708 0
-348 -368 464 0
6 -307 0
10 -46 0
5 -46 0
8 -279 0
-5 -9 45 0
361 -674 0
5 -306 0
10 -110 0
9 -45 0
5 -45 0
-5 -8 44 0
4 -265 0
3 -202 0
8 -44 0
-343 -374 390 0
5 -44 0
-5 -7 43 0
7 -43 0
366 -731 0
365 -666 0
5 -43 0
-343 -360 376 0
-4 -12 42 0
12 -42 0
4 -42 0
-4 -11 41 0
-5 -17 83 0
11 -41 0
5 -82 0
4 -41 0
-4 -10 40 0
-1 -8 -13 133 0
10 -40 0
4 -40 0
353 -537 0
364 -492 0
363 -427 0
-1 -11 -13 151 0
-4 -9 39 0
5 -292 0
9 -39 0
5 -84 0
4 -39 0
363 -619 0
-4 -8 38 0
-354 -360 552 0
3 -212 0
8 -38 0
15 -291 0
4 -38 0
6 -332 0
-4 -7 37 0
-351 -368 512 0
8 -100 0
-5 -13 79 0
7 -37 0
4 -37 0
-3 -12 36 0
-362 -363 677 0
-350 -362 490 0
12 -36 0
3 -36 0
-350 -360 488 0
-3 -11 35 0
11 -35 0
-356 -364 588 0
3 -35 0
373 -645 0
-3 -10 34 0
-352 -362 522 0
10 -34 0
363 -701 0
3 -34 0
-3 -9 33 0
5 -286 0
9 -33 0
363 -700 0
3 -33 0
-3 -8 32 0
-4 -9 -17 251 0
3 -214 0
8 -32 0
363 -699 0
3 -32 0
-3 -7 31 0
364 -712 0
7 -31 0
-355 -363 571 0
3 -31 0
14 -62 0
-2 -12 30 0
-363 -365 691 0
12 -30 0
367 -527 0
2 -30 0
-345 -366 414 0
9 -324 0
-2 -11 29 0
-1 -8 -18 138 0
11 -29 0
2 -29 0
-2 -10 28 0
10 -28 0
-343 -369 385 0
2 -28 0
375 -746 0
-2 -9 27 0
5 -288 0
9 -27 0
2 -27 0
356 -589 0
360 -376 0
-2 -8 26 0
3 -224 0
2 -167 0
-8 -14 98 0
8 -26 0
2 -26 0
-2 -7 25 0
-343 -365 381 0
7 -25 0
-347 -375 455 0
2 -25 0
375 -722 0
-6 -11 -17 335 0
1 -162 0
-1 -12 24 0
368 -694 0
8 -277 0
12 -24 0
-1 -10 -13 145 0
1 -24 0
-362 -366 680 0
-353 -360 536 0
370 -434 0
344 -402 0
-11 -13 115 0
-1 -11 23 0
-356 -372 596 0
-345 -371 419 0
7 -276 0
11 -23 0
1 -23 0
-1 -10 22 0
365 -397 0
10 -22 0
1 -22 0
-1 -9 21 0
365 -717 0
5 -282 0
9 -21 0
1 -21 0
-1 -8 20 0
-5 -11 -15 297 0
3 -226 0
2 -165 0
8 -20 0
1 -20 0
-1 -7 19 0
-346 -366 430 0
7 -19 0
368 -608 0
1 -19 0
x -351 354 355 359 360 363 364 365 366 370 371 374 379 380 382 383 384 386 387 390 391 393 396 397 398 399 400 402 403 404 406 409 410 411 412 413 423 425 426 427 429 431 432 433 435 437 439 440 441 443 444 445 448 449 450 451 455 457 458 461 464 468 469 471 472 473 475 477 478 479 480 481 484 485 489 491 492 493 494 495 498 499 503 505 506 507 508 509 512 513 517 518 519 520 521 522 523 526 527 531 532 533 534 536 537 540 541 545 546 547 548 550 551 554 555 559 560 561 562 564 565 566 567 568 569 573 574 575 576 578 579 580 581 583 587 588 589 590 592 593 594 595 597 598 599 601 602 603 604 606 607 608 609 611 612 613 615 616 617 618 620 621 622 623 625 626 627 629 631 632 634 635 636 637 639 640 641 643 645 650 655 657 658 659 663 664 667 668 669 670 672 673 678 680 681 683 684 688 690 691 692 693 694 695 696 697 698 702 703 704 705 706 707 710 712 713 714 716 717 718 721 722 723 724 725 732 733 736 737 739 741 743 746 747 748 749 751 752 753 755 757 758 762 765 766 0
x 350 351 352 358 359 360 361 362 363 364 365 366 369 375 377 378 380 382 383 384 385 387 388 390 394 397 398 404 405 406 408 412 414 416 417 418 419 421 422 423 428 429 430 433 438 439 441 442 443 446 450 451 455 457 459 460 461 462 464 466 467 468 469 470 472 474 476 477 478 479 480 483 484 488 490 491 492 493 494 497 498 502 503 504 505 506 507 508 511 512 516 517 518 519 520 521 522 525 526 530 531 532 533 535 536 539 540 544 545 546 547 549 550 551 553 554 558 559 560 561 563 564 565 566 568 572 573 574 575 577 578 579 580 582 583 586 587 588 589 591 592 593 594 596 597 598 600 601 602 603 605 606 607 608 610 611 612 614 616 617 619 620 621 622 624 625 626 628 630 633 634 635 636 638 639 640 642 644 648 651 653 654 660 662 663 665 672 674 675 676 680 684 686 687 688 694 696 697 698 699 700 702 703 708 709 710 712 716 717 718 719 726 728 729 730 732 734 737 743 744 749 751 753 755 756 757 758 760 763 765 0
x 347 351 353 356 358 364 365 369 370 374 377 380 381 382 383 384 386 387 388 390 393 394 395 396 397 407 409 410 411 413 415 416 417 419 421 423 424 425 427 428 429 432 433 434 435 439 441 442 445 448 452 453 455 456 458 459 460 461 464 466 470 473 475 476 477 478 479 482 483 487 489 490 491 492 493 496 497 501 502 503 504 505 506 507 510 511 515 516 517 518 520 521 524 525 529 530 531 532 534 535 538 539 543 544 545 546 548 549 550 551 552 553 557 558 559 560 562 563 564 565 567 571 572 573 574 576 577 578 579 581 582 583 585 586 587 588 590 591 592 593 595 596 597 599 600 601 602 604 605 606 607 609 610 611 613 615 616 618 619 620 621 623 624 625 627 629 632 633 634 635 637 638 639 641 643 648 650 651 654 655 657 659 660 662 666 669 670 674 676 677 678 680 681 685 688 689 690 694 696 698 700 703 705 707 710 713 714 716 718 719 720 721 722 723 725 726 730 735 737 738 739 740 741 744 746 747 749 753 755 757 758 759 760 764 767 0
x -351 354 358 359 360 362 364 366 367 370 374 375 378 381 382 388 389 390 392 396 398 400 401 402 403 405 406 407 412 413 414 417 422 423 425 426 427 430 434 435 439 441 443 444 445 446 448 450 451 452 453 454 457 459 461 462 468 469 472 474 475 476 477 478 481 482 486 487 488 489 490 491 492 495 496 500 501 502 503 504 505 506 509 510 514 515 516 517 519 520 523 524 528 529 530 531 533 534 535 537 538 542 543 544 545 547 548 549 550 552 556 557 558 559 561 562 563 564 566 567 570 571 572 573 575 576 577 578 580 581 582 584 585 586 587 589 590 591 592 594 595 596 598 600 601 603 604 605 606 608 609 610 612 614 617 618 619 620 622 623 624 626 628 632 633 634 636 637 638 640 642 647 648 649 652 653 654 655 657 658 664 666 667 669 670 674 676 677 678 679 680 681 682 683 684 685 689 690 691 692 693 694 695 698 700 702 703 705 706 707 710 711 712 713 714 715 722 723 724 727 728 730 733 735 738 740 741 742 744 745 746 747 749 751 753 758 762 763 766 767 0
x 350 351 353 354 356 361 362 363 365 367 370 371 372 373 375 377 378 379 380 381 391 393 394 395 397 399 400 401 403 405 407 408 409 411 412 413 416 417 418 419 423 425 426 429 432 436 437 439 440 442 443 444 445 448 450 454 456 458 460 461 462 463 464 466 469 470 471 473 474 475 476 477 480 481 485 486 487 488 489 490 491 494 495 499 500 501 502 504 505 508 509 513 514 515 516 518 519 522 523 527 528 529 530 532 533 534 535 536 537 541 542 543 544 546 547 548 549 551 555 556 557 558 560 561 562 563 565 566 567 569 570 571 572 574 575 576 577 579 580 581 583 584 585 586 588 589 590 591 593 594 595 597 599 600 602 603 604 605 607 608 609 611 613 616 617 618 619 621 622 623 625 627 632 633 635 636 637 639 641 646 647 648 650 657 659 660 661 666 670 672 673 674 681 683 684 685 686 687 689 690 691 696 697 698 700 701 705 706 707 708 716 718 719 720 723 725 728 731 735 736 742 744 746 747 749 750 751 752 753 755 759 761 762 764 767 0
x 350 351 353 356 357 359 361 368 369 370 373 374 376 380 382 384 385 386 387 389 390 391 396 397 398 401 406 407 409 410 411 414 418 419 423 425 427 428 429 430 432 434 435 436 437 438 441 443 445 446 452 453 463 464 465 467 468 469 470 471 472 473 474 475 476 479 480 484 485 486 487 488 489 490 493 494 498 499 500 501 503 504 507 508 512 513 514 515 517 518 519 521 522 526 527 528 529 531 532 533 534 536 540 541 542 543 545 546 547 548 550 551 554 555 556 557 559 560 561 562 564 565 566 568 569 570 571 573 574 575 576 578 579 580 582 584 585 587 588 589 590 592 593 594 596 598 601 602 603 604 606 607 608 610 612 616 617 618 620 621 622 624 626 631 632 634 635 636 638 640 645 646 651 654 655 659 661 663 664 666 667 671 674 675 677 681 683 685 687 689 691 693 695 698 702 703 705 707 708 709 710 711 712 713 715 716 720 726 728 729 730 731 732 733 736 738 740 742 747 749 751 753 754 755 760 761 765 767 0
x 346 352 358 360 363 364 365 366 370 371 372 374 375 377 378 379 381 383 384 385 387 389 391 392 393 395 396 397 400 401 402 403 407 409 410 413 416 420 421 423 424 426 427 428 429 432 434 438 440 442 444 445 446 447 448 450 453 454 455 461 464 465 470 472 473 474 475 478 479 483 484 485 486 488 489 492 493 497 498 499 500 502 503 506 507 511 512 513 514 516 517 518 519 520 521 525 526 527 528 530 531 532 533 535 539 540 541 542 544 545 546 547 549 550 551 553 554 555 556 558 559 560 561 563 564 565 567 568 569 570 572 573 574 575 577 578 579 581 583 584 586 587 588 589 591 592 593 595 597 600 601 602 603 605 606 607 609 611 616 617 619 620 621 623 625 630 631 633 634 635 637 639 644 645 649 651 652 654 655 659 661 662 663 664 665 666 667 668 669 670 671 675 677 678 679 680 681 682 685 687 690 691 693 694 695 698 699 700 702 703 704 711 713 714 717 718 720 724 726 729 731 732 733 734 736 737 738 739 740 742 744 746 747 753 758 759 763 764 765 0
x 350 352 353 355 360 361 362 364 367 371 372 374 380 381 382 385 390 391 393 394 395 398 402 403 407 409 411 412 413 414 416 418 419 420 421 422 425 427 429 430 436 437 447 448 449 451 452 453 454 455 456 458 459 461 464 466 469 471 472 473 474 477 478 482 483 484 485 487 488 491 492 496 497 498 499 501 502 503 505 506 510 511 512 513 515 516 517 518 520 524 525 526 527 529 530 531 532 534 535 538 539 540 541 543 544 545 546 548 549 550 552 553 554 555 557 558 559 560 562 563 564 566 568 569 571 572 573 574 576 577 578 580 582 585 586 587 588 590 591 592 594 596 600 601 602 604 605 606 608 610 615 616 618 619 620 622 624 629 630 632 633 634 636 638 643 644 651 655 657 658 659 662 667 669 670 671 672 673 675 677 678 683 684 685 687 688 693 694 695 696 701 705 707 708 709 712 713 715 718 721 726 727 734 736 738 740 742 743 744 745 747 749 752 754 756 758 760 761 764 765 766 0
x -349 350 351 352 354 355 357 358 359 361 363 364 365 366 369 370 371 374 377 378 379 382 386 387 391 393 395 396 397 398 400 402 403 404 405 406 409 411 413 414 420 421 431 432 433 435 436 437 438 439 440 442 443 445 448 450 453 455 456 458 459 461 463 466 469 472 475 476 480 481 482 483 485 486 487 489 490 494 495 496 497 499 500 501 502 504 508 509 510 511 513 514 515 516 518 519 522 523 524 525 527 528 529 530 532 533 534 536 537 538 539 541 542 543 544 546 547 548 550 552 553 555 556 557 558 560 561 562 564 566 569 570 571 572 574 575 576 578 580 584 585 586 588 589 590 592 594 599 600 602 603 604 606 608 613 614 616 617 618 620 622 627 628 632 634 636 641 642 646 648 649 650 651 652 653 654 655 656 660 663 664 665 666 667 668 671 673 677 678 680 681 682 685 686 687 690 691 692 699 702 703 706 707 709 714 716 719 721 723 724 725 727 728 729 730 732 734 736 738 739 740 747 752 753 754 759 760 761 762 764 767 0
x -345 351 353 355 356 361 363 365 366 367 368 369 372 373 375 377 378 381 384 388 389 391 392 394 395 396 397 400 402 406 408 410 412 413 414 415 416 418 421 422 423 429 432 433 438 441 442 445 446 447 448 450 451 454 457 458 459 461 462 463 464 466 467 468 470 471 474 475 479 480 481 482 484 485 486 487 488 489 493 494 495 496 498 499 500 501 503 507 508 509 510 512 513 514 515 517 518 519 521 522 523 524 526 527 528 529 531 532 533 535 536 537 538 540 541 542 543 545 546 547 549 551 552 554 555 556 557 559 560 561 563 565 568 569 570 571 573 574 575 577 579 584 585 587 588 589 591 593 598 599 601 602 603 605 607 612 613 616 617 619 621 626 627 631 633 635 640 641 645 647 652 654 655 656 657 658 660 663 664 669 670 671 673 674 676 680 681 682 683 688 693 695 696 697 700 701 702 704 707 710 712 716 717 722 725 727 729 732 734 735 736 737 740 742 745 748 750 753 755 756 760 762 763 766 767 0
x -349 350 351 352 353 354 355 356 359 360 362 365 366 367 369 370 371 372 373 375 377 379 380 381 382 384 386 387 388 389 390 393 395 397 398 404 405 415 416 417 419 420 421 422 423 424 426 427 429 432 434 437 439 440 442 443 445 447 450 453 459 460 462 463 464 465 466 467 469 470 473 474 478 479 480 481 483 484 485 486 488 492 493 494 495 497 498 499 500 502 503 506 507 508 509 511 512 513 514 516 517 518 520 521 522 523 525 526 527 528 530 531 532 534 536 537 539 540 541 542 544 545 546 548 550 553 554 555 556 558 559 560 562 564 568 569 570 572 573 574 576 578 583 584 586 587 588 590 592 597 598 600 601 602 604 606 611 612 616 618 620 625 626 630 632 634 639 640 644 646 647 648 652 654 656 658 660 662 664 666 668 671 676 677 678 680 682 683 684 685 686 687 688 690 692 693 697 700 705 707 708 709 710 711 713 714 717 719 721 722 723 725 730 732 734 736 738 739 740 741 742 745 749 750 751 757 758 761 762 764 0
x 348 349 351 353 357 358 359 360 361 362 363 364 366 368 369 370 371 372 374 376 378 379 380 381 384 386 390 392 394 396 397 398 399 400 402 405 406 407 413 416 417 422 425 426 429 430 431 432 434 435 438 441 442 443 445 446 447 448 450 451 452 454 455 460 461 468 471 472 473 477 478 479 480 482 483 484 485 487 491 492 493 494 496 497 498 499 501 502 503 505 506 507 508 510 511 512 513 515 516 517 519 520 521 522 524 525 526 527 529 530 531 533 535 536 538 539 540 541 543 544 545 547 549 552 553 554 555 557 558 559 561 563 568 569 571 572 573 575 577 582 583 585 586 587 589 591 596 597 600 601 603 605 610 611 615 617 619 624 625 629 631 633 638 639 643 645 646 647 648 649 650 651 652 653 656 658 663 664 666 667 668 671 672 673 677 678 679 686 689 690 691 694 695 697 701 703 705 708 710 713 714 715 717 718 719 720 722 723 725 727 729 730 731 732 739 740 745 747 748 754 755 756 758 760 761 765 766 767 0
x -350 351 352 353 355 356 357 360 361 362 363 365 366 367 368 369 370 373 375 377 379 381 382 388 389 399 400 401 403 404 405 406 407 408 410 411 413 416 418 421 423 424 426 427 429 431 434 437 443 444 446 447 448 449 450 451 453 454 456 457 458 459 463 467 470 472 476 477 478 479 481 482 483 484 486 487 490 491 492 493 495 496 497 498 500 501 502 504 505 506 507 509 510 511 512 514 515 516 518 520 521 523 524 525 526 528 529 530 532 534 537 538 539 540 542 543 544 546 548 552 553 554 556 557 558 560 562 567 568 570 571 572 574 576 581 582 584 585 586 588 590 595 596 600 602 604 609 610 614 616 618 623 624 628 630 631 632 637 638 642 644 645 646 648 649 654 655 656 658 659 661 662 666 667 668 669 674 680 682 683 684 687 688 690 692 695 698 700 701 705 706 711 715 717 719 722 723 725 726 727 728 732 734 737 741 743 747 749 750 752 755 758 759 763 765 766 767 0
x -344 350 352 353 354 355 357 362 365 367 368 369 373 374 375 376 378 379 381 387 389 393 396 398 399 401 402 403 404 411 412 414 415 416 418 419 422 423 430 433 434 436 437 438 440 441 443 448 449 450 451 452 456 457 458 459 463 465 466 471 472 473 476 479 482 483 484 486 487 490 493 496 497 498 500 501 504 507 510 511 512 514 515 518 521 524 525 526 528 529 532 534 538 539 540 542 543 546 548 550 551 552 553 554 556 557 560 562 564 565 568 570 571 574 576 578 579 583 584 585 588 590 592 593 597 598 602 604 606 607 611 612 616 618 620 621 625 626 630 632 634 635 639 640 644 647 649 650 651 653 655 656 657 658 659 661 666 667 671 674 676 677 678 679 681 683 687 688 690 691 692 694 699 701 704 705 707 708 711 712 714 715 716 717 718 720 721 722 724 727 729 730 731 734 736 739 741 742 744 746 747 748 749 755 756 757 760 762 765 766 767 0
x -348 349 351 355 357 358 361 363 364 365 367 368 370 373 377 378 380 382 389 391 392 395 398 400 402 404 406 407 410 411 412 413 414 415 416 417 419 422 423 427 429 431 432 434 435 437 439 440 446 447 450 454 455 456 458 461 462 463 465 466 469 470 471 472 475 478 481 482 483 485 486 489 492 495 496 497 499 500 503 506 509 510 511 513 514 517 519 520 523 524 525 527 528 531 533 535 537 538 539 541 542 545 547 549 550 552 553 555 556 559 561 563 564 569 570 573 575 577 578 582 583 584 587 589 591 592 596 597 601 603 605 606 610 611 615 617 619 620 624 625 629 633 634 638 639 643 646 649 652 654 656 657 658 660 662 664 674 677 678 680 681 682 686 687 691 693 694 697 699 700 701 704 706 707 710 711 712 713 715 716 718 720 721 723 726 728 729 734 740 741 743 744 748 750 751 752 757 758 760 761 762 0
x 348 351 354 356 357 361 363 364 365 366 367 370 377 380 382 383 385 386 387 388 395 396 398 399 400 402 403 406 407 414 417 418 420 421 422 424 425 427 432 433 434 435 436 440 441 442 443 447 449 450 455 456 458 464 470 471 474 477 480 481 482 484 485 488 491 494 495 496 498 499 502 505 508 509 510 512 513 516 518 522 523 524 526 527 530 532 534 535 536 537 538 540 541 544 546 548 549 552 554 555 558 560 562 563 567 568 569 572 574 576 577 581 582 586 588 590 591 595 596 600 602 604 605 609 610 614 616 618 619 623 624 628 631 632 633 637 638 642 645 647 648 650 652 653 655 657 660 662 668 673 678 679 680 681 682 687 689 690 693 696 698 699 700 701 703 704 705 706 707 708 710 711 714 715 717 719 720 721 726 728 730 733 737 738 741 742 743 744 745 746 747 754 755 758 760 761 762 763 765 766 0
x 348 349 351 353 354 357 360 361 363 365 372 373 375 376 380 383 387 388 393 394 395 401 402 404 407 409 410 412 415 416 418 419 421 424 425 426 427 429 430 432 433 434 435 437 438 441 442 443 444 446 447 448 451 453 454 456 458 460 461 462 464 465 472 475 476 477 478 483 485 487 489 490 491 492 497 499 501 504 505 506 511 513 515 518 520 525 527 529 532 539 541 543 546 550 551 553 555 557 560 564 565 569 571 574 578 579 583 585 588 592 593 597 598 602 606 607 611 612 615 616 620 621 625 626 629 630 631 634 635 639 640 643 644 645 646 647 650 651 652 655 656 657 658 661 665 668 670 672 674 677 679 680 683 684 686 689 690 691 694 697 698 699 700 702 709 711 713 716 718 719 720 723 724 727 730 731 732 734 737 738 740 742 743 746 747 748 750 753 757 761 763 766 767 0
x 343 350 351 352 358 359 360 361 362 364 365 368 369 371 373 377 378 380 382 383 384 385 387 388 390 393 394 396 398 399 400 401 403 404 406 410 413 414 420 421 422 424 428 430 432 433 434 435 437 438 439 444 445 446 449 454 455 457 458 459 462 466 467 471 472 473 474 476 478 479 480 481 482 485 486 488 490 492 493 494 495 496 499 500 504 506 507 508 509 510 513 514 518 519 520 521 522 523 524 527 528 532 533 534 535 536 537 538 541 542 546 547 548 549 551 552 555 556 560 561 562 563 565 566 567 569 570 574 575 576 577 579 580 581 582 584 588 589 590 591 593 594 595 596 598 599 602 603 604 605 607 608 609 610 612 613 614 616 617 618 619 621 622 623 624 626 627 628 630 632 633 635 636 637 638 640 641 642 644 646 648 649 650 651 653 654 655 657 658 660 662 663 665 666 669 670 672 674 675 680 683 684 688 690 691 693 694 698 701 702 706 708 710 712 714 716 718 721 723 724 726 728 729 730 731 732 734 735 739 743 745 746 747 748 751 753 755 758 760 762 763 764 0
x 342 -375 0
x 306 336 341 -374 0
x 270 300 305 330 335 340 -373 0
x 234 264 269 294 299 304 324 329 334 339 -372 0
x 198 228 233 258 263 268 288 293 298 303 318 323 328 333 338 -371 0
x 162 192 197 222 227 232 252 257 262 267 282 287 292 297 302 312 317 322 327 332 337 -370 0
x 156 161 186 191 196 216 221 226 231 246 251 256 261 266 276 281 286 291 296 301 311 316 321 326 331 -369 0
x 150 155 160 180 185 190 195 210 215 220 225 230 240 245 250 255 260 265 275 280 285 290 295 310 315 320 325 -368 0
x 144 149 154 159 174 179 184 189 194 204 209 214 219 224 229 239 244 249 254 259 274 279 284 289 309 314 319 -367 0
x 138 143 148 153 158 168 173 178 183 188 193 203 208 213 218 223 238 243 248 253 273 278 283 308 313 -366 0
x 132 137 142 147 152 157 167 172 177 182 187 202 207 212 217 237 242 247 272 277 307 -365 0
x 131 136 141 146 151 166 171 176 181 201 206 211 236 241 271 -364 0
x 130 135 140 145 165 170 175 200 205 235 -363 0
x 129 134 139 164 169 199 -362 0
x 128 133 163 -361 0
x 127 -360 0
x 54 90 126 -359 0
x 48 53 84 89 120 125 -358 0
x 42 47 52 78 83 88 114 119 124 -357 0
x -350 352 353 354 355 356 357 358 363 367 368 370 372 375 376 377 379 380 381 384 385 386 387 391 393 394 397 400 404 405 407 408 410 411 412 413 416 418 422 424 426 428 429 430 431 432 434 437 438 439 445 448 449 454 457 458 461 462 463 464 466 467 470 472 473 476 477 481 482 483 484 486 487 490 491 495 496 497 498 500 501 502 503 504 505 509 510 511 512 514 515 516 517 519 523 524 525 526 528 529 530 531 533 534 535 537 538 539 540 542 543 544 545 547 548 549 551 552 553 554 556 557 558 559 561 562 563 565 567 568 570 571 572 573 575 576 577 579 581 584 585 586 587 589 590 591 593 595 600 601 603 604 605 607 609 614 615 617 618 619 621 623 628 629 632 633 635 637 642 643 647 648 649 651 652 656 659 660 662 663 667 669 671 673 675 678 680 682 685 690 691 693 695 696 697 698 699 700 701 702 704 705 709 712 716 718 719 720 721 722 723 724 727 729 731 732 734 739 740 742 744 746 747 748 749 752 755 756 757 762 765 0
x 36 41 46 51 72 77 82 87 108 113 118 123 -356 0
x 30 35 40 45 50 66 71 76 81 86 102 107 112 117 122 -355 0
x 24 29 34 39 44 49 60 65 70 75 80 85 96 101 106 111 116 121 -354 0
x 23 28 33 38 43 59 64 69 74 79 95 100 105 110 115 -353 0
x 22 27 32 37 58 63 68 73 94 99 104 109 -352 0
x 21 26 31 57 62 67 93 98 103 -351 0
x 20 25 56 61 92 97 -350 0
x 19 55 91 -349 0
x 6 12 18 -348 0
x 5 11 17 -347 0
x 4 10 16 -346 0
x 3 9 15 -345 0
x 2 8 14 -344 0
x 1 7 13 -343 0
-794 -331 301 0
-332 -793 794 0
-793 -332 302 0
-792 -333 303 0
304 -791 792 0
-791 -334 304 0
-69 -790 791 0
105 -790 791 0
-790 -69 105 0
-76 -789 790 0
112 -789 790 0
-789 -76 112 0
-83 -788 789 0
119 -788 789 0
-90 -787 788 0
126 -787 788 0
-776 -169 134 0
-54 -775 776 0
126 -775 776 0
-783 -231 321 0
-341 306 0
-334 -791 792 0
-132 -772 773 0
-40 -773 774 0
-769 -300 335 0
112 -773 774 0
-47 -774 775 0
119 -774 775 0
-336 -780 781 0
105 -771 772 0
335 -769 770 0
768 0
134 -776 777 0
-341 -768 769 0
-781 -305 335 0
302 -793 794 0
-786 -157 307 0
328 -770 771 0
-770 -258 328 0
-336 341 0
-33 -771 772 0
303 -792 793 0
-258 -770 771 0
-771 -33 105 0
-268 -782 783 0
-775 -54 126 0
-336 306 0
-216 -778 779 0
306 -768 769 0
134 -785 786 0
-300 -769 770 0
-779 -313 138 0
-782 -268 328 0
-231 -783 784 0
-194 -784 785 0
-169 -776 777 0
-777 -174 314 0
-333 -792 793 0
314 -777 778 0
-174 -777 778 0
-778 -216 321 0
306 -780 781 0
780 0
-305 -781 782 0
335 -781 782 0
328 -782 783 0
321 -783 784 0
-784 -194 314 0
321 -778 779 0
307 -786 787 0
-788 -83 119 0
314 -784 785 0
-773 -40 112 0
307 -772 773 0
-785 -164 134 0
-164 -785 786 0
-774 -47 119 0
-157 -786 787 0
-772 -132 307 0
-787 -90 126 0
