c number of breaking clauses added: 13
c max original variable: 2000
c auxiliary variables: 4
p cnf 2004 6588
1050 -2000 0
1049 -2000 0
-1048 -1050 1999 0
1050 -1999 0
-1048 -1049 1998 0
1049 -1998 0
-1047 -1050 1997 0
1047 -1997 0
1047 -1996 0
-1047 -1048 1995 0
1050 -1994 0
1046 -1993 0
-1046 -1047 1991 0
1046 -1991 0
1050 -1990 0
1045 -1989 0
1045 -1988 0
-1045 -1047 1987 0
1047 -1987 0
-1045 -1046 1986 0
1045 -1986 0
-1044 -1050 1985 0
1050 -1985 0
1044 -1985 0
1049 -1984 0
1044 -1984 0
-1044 -1048 1983 0
1044 -1983 0
1046 -1981 0
1044 -1981 0
-1044 -1045 1980 0
1045 -1980 0
1050 -1979 0
1043 -1976 0
1043 -1975 0
1046 -1994 0
-1043 -1045 1974 0
1045 -1974 0
1043 -1974 0
1044 -1973 0
1043 -1973 0
1042 -1971 0
-1042 -1048 1970 0
1042 -1970 0
1050 -1964 0
1049 -1963 0
-1041 -1048 1962 0
1041 -1962 0
1047 -1961 0
-1041 -1046 1960 0
1046 -1960 0
1045 -1959 0
1041 -1959 0
-1041 -1044 1958 0
1044 -1958 0
-1041 -1043 1957 0
1041 -1957 0
-1041 -1042 1956 0
-1040 -1050 1955 0
-1040 -1049 1954 0
-1040 -1046 1951 0
1040 -1951 0
1045 -1950 0
-1040 -1043 1948 0
1043 -1948 0
1040 -1948 0
-1040 -1042 1947 0
1042 -1947 0
1050 -1945 0
1039 -1945 0
-1039 -1049 1944 0
1039 -1944 0
-1039 -1047 1942 0
1047 -1942 0
1039 -1942 0
1039 -1941 0
1045 -1940 0
1039 -1940 0
1044 -1939 0
1039 -1939 0
-1039 -1043 1938 0
1039 -1938 0
1039 -1937 0
1039 -1936 0
1040 -1935 0
1039 -1935 0
1050 -1934 0
1049 -1933 0
-1038 -1047 1931 0
1038 -1931 0
-1038 -1046 1930 0
1046 -1930 0
1048 -1970 0
-1038 -1045 1929 0
1046 -1992 0
1045 -1929 0
-1038 -1043 1927 0
1043 -1927 0
1042 -1926 0
1041 -1925 0
1038 -1924 0
1037 -1922 0
-1037 -1049 1921 0
1049 -1921 0
1037 -1920 0
1037 -1919 0
1037 -1918 0
1045 -1917 0
-1037 -1044 1916 0
-1037 -1041 1913 0
-1037 -1040 1912 0
1040 -1912 0
-1047 -1049 1996 0
1039 -1911 0
1038 -1910 0
-1036 -1050 1909 0
-1036 -1049 1908 0
1036 -1908 0
1039 -1923 0
-1036 -1048 1907 0
1036 -1907 0
-1036 -1047 1906 0
1036 -1906 0
-1036 -1046 1905 0
1036 -1904 0
-1036 -1044 1903 0
1036 -1903 0
1043 -1902 0
1036 -1902 0
-1036 -1042 1901 0
-1036 -1041 1900 0
-1036 -1040 1899 0
-1036 -1039 1898 0
1039 -1898 0
1036 -1897 0
-1036 -1037 1896 0
-1035 -1050 1895 0
1035 -1895 0
1035 -1894 0
1046 -1891 0
1035 -1891 0
-1035 -1043 1888 0
1042 -1887 0
-1035 -1040 1885 0
1040 -1885 0
1035 -1883 0
1035 -1882 0
1036 -1881 0
1049 -1879 0
-1034 -1048 1878 0
1034 -1877 0
-1034 -1046 1876 0
1046 -1876 0
1034 -1876 0
-1034 -1044 1874 0
1034 -1874 0
-1040 -1041 1946 0
1043 -1873 0
1034 -1872 0
1034 -1871 0
-1034 -1040 1870 0
1034 -1870 0
1034 -1869 0
1034 -1868 0
1042 -1937 0
-1034 -1037 1867 0
1034 -1866 0
-1034 -1035 1865 0
1034 -1865 0
1033 -1864 0
-1033 -1049 1863 0
1049 -1863 0
1033 -1862 0
-1033 -1047 1861 0
1033 -1861 0
-1033 -1046 1860 0
1046 -1860 0
1033 -1860 0
1034 -1879 0
-1033 -1045 1859 0
1045 -1859 0
-1033 -1044 1858 0
1033 -1858 0
-1033 -1043 1857 0
1043 -1857 0
1042 -1856 0
-1039 -1048 1943 0
1033 -1856 0
1041 -1855 0
1033 -1855 0
1033 -1854 0
1039 -1853 0
1033 -1853 0
1038 -1852 0
1033 -1852 0
1033 -1851 0
1036 -1850 0
-1040 -1045 1950 0
1033 -1850 0
1033 -1848 0
1032 -1847 0
1050 -1909 0
1049 -1846 0
1032 -1846 0
-1032 -1047 1844 0
1032 -1843 0
1045 -1842 0
1032 -1842 0
-1032 -1044 1841 0
1032 -1841 0
1032 -1840 0
-1032 -1042 1839 0
1042 -1839 0
1032 -1838 0
-1032 -1040 1837 0
1032 -1837 0
1032 -1836 0
-1032 -1038 1835 0
1032 -1835 0
-1032 -1036 1833 0
1036 -1833 0
1032 -1833 0
-1032 -1035 1832 0
1035 -1832 0
1032 -1831 0
1033 -1830 0
-1041 -1045 1959 0
1032 -1830 0
-1031 -1050 1829 0
1031 -1829 0
1031 -1828 0
-1031 -1048 1827 0
1031 -1827 0
1031 -1826 0
1046 -1825 0
1045 -1824 0
-1031 -1044 1823 0
1044 -1823 0
1031 -1825 0
-1031 -1043 1822 0
1042 -1821 0
1045 -1890 0
1031 -1821 0
-1031 -1040 1819 0
1031 -1819 0
1039 -1818 0
1031 -1818 0
-1031 -1038 1817 0
1037 -1816 0
1036 -1815 0
1031 -1815 0
1031 -1814 0
1034 -1813 0
-1031 -1033 1812 0
1034 -1875 0
1033 -1812 0
1031 -1812 0
1031 -1811 0
-1030 -1050 1810 0
1050 -1810 0
1030 -1808 0
-1030 -1047 1807 0
1030 -1807 0
-1030 -1046 1806 0
1045 -1805 0
1030 -1805 0
1030 -1804 0
-1030 -1043 1803 0
1030 -1803 0
-1030 -1042 1802 0
-1030 -1041 1801 0
1041 -1801 0
1030 -1801 0
1030 -1800 0
-1030 -1039 1799 0
1030 -1798 0
-1030 -1037 1797 0
1030 -1797 0
-1030 -1036 1796 0
1036 -1796 0
1030 -1796 0
1035 -1795 0
-1030 -1033 1793 0
1033 -1793 0
1030 -1793 0
-1030 -1032 1792 0
1032 -1792 0
1031 -1791 0
1029 -1789 0
1029 -1788 0
-1029 -1047 1787 0
-1029 -1046 1786 0
1029 -1786 0
-1029 -1045 1785 0
-1029 -1044 1784 0
1044 -1784 0
-1029 -1043 1783 0
1029 -1783 0
-1029 -1042 1782 0
1042 -1782 0
-1029 -1041 1781 0
1029 -1781 0
1040 -1780 0
-1029 -1039 1779 0
1029 -1777 0
-1029 -1036 1776 0
1029 -1776 0
1029 -1775 0
-1029 -1034 1774 0
1029 -1774 0
1029 -1773 0
-1029 -1032 1772 0
1032 -1772 0
-1029 -1030 1770 0
1045 -1967 0
1050 -1769 0
1028 -1769 0
-1028 -1049 1768 0
-1028 -1048 1767 0
1048 -1767 0
-1028 -1046 1765 0
1028 -1765 0
1045 -1764 0
1028 -1764 0
-1028 -1044 1763 0
1044 -1763 0
1043 -1762 0
1028 -1762 0
-1028 -1042 1761 0
1042 -1761 0
-1028 -1041 1760 0
1041 -1760 0
1028 -1760 0
-1028 -1040 1759 0
1040 -1759 0
-1028 -1039 1758 0
1039 -1758 0
1038 -1757 0
1028 -1757 0
1036 -1755 0
1028 -1755 0
1035 -1754 0
1028 -1754 0
1034 -1753 0
1028 -1753 0
-1028 -1033 1752 0
1033 -1752 0
1031 -1750 0
1028 -1750 0
1028 -1749 0
-1032 -1045 1842 0
1029 -1748 0
1028 -1748 0
1027 -1747 0
1044 -1982 0
1048 -1745 0
-1031 -1039 1818 0
1027 -1745 0
1050 -1864 0
1027 -1744 0
-1027 -1046 1743 0
1046 -1743 0
1027 -1742 0
1044 -1741 0
1027 -1741 0
1043 -1740 0
1042 -1739 0
1027 -1739 0
-1027 -1041 1738 0
-1027 -1040 1737 0
1027 -1736 0
1027 -1735 0
1036 -1733 0
-1027 -1035 1732 0
1035 -1732 0
1027 -1732 0
1027 -1731 0
1049 -1789 0
1027 -1730 0
1032 -1729 0
1031 -1728 0
1030 -1727 0
1027 -1727 0
1030 -1791 0
1029 -1726 0
1027 -1726 0
1028 -1725 0
-1026 -1050 1724 0
1050 -1724 0
1026 -1724 0
-1026 -1049 1723 0
1026 -1723 0
1048 -1722 0
1026 -1721 0
-1026 -1044 1718 0
1044 -1718 0
-1026 -1043 1717 0
1026 -1716 0
-1026 -1041 1715 0
1041 -1715 0
1040 -1714 0
1026 -1714 0
-1043 -1049 1978 0
1038 -1712 0
1037 -1711 0
1026 -1711 0
-1026 -1036 1710 0
1026 -1710 0
1026 -1709 0
-1026 -1034 1708 0
1026 -1706 0
-1026 -1031 1705 0
1049 -1993 0
1031 -1705 0
-1046 -1048 1992 0
1026 -1704 0
1029 -1703 0
1026 -1703 0
1026 -1701 0
1033 -1857 0
-1025 -1050 1700 0
-1025 -1049 1699 0
1049 -1699 0
-1025 -1048 1698 0
1048 -1698 0
1047 -1697 0
1026 -1719 0
-1025 -1046 1696 0
1042 -1965 0
1046 -1696 0
-1025 -1045 1695 0
1040 -1947 0
1044 -1694 0
-1025 -1043 1693 0
1043 -1693 0
1042 -1692 0
1025 -1692 0
-1025 -1041 1691 0
1041 -1691 0
1025 -1691 0
1025 -1690 0
1039 -1689 0
-1025 -1038 1688 0
1038 -1688 0
1025 -1688 0
1025 -1687 0
-1025 -1036 1686 0
1036 -1686 0
1025 -1686 0
-1025 -1035 1685 0
1035 -1685 0
-1025 -1034 1684 0
1034 -1684 0
-1043 -1048 1977 0
1025 -1684 0
-1025 -1033 1683 0
1033 -1683 0
-1031 -1036 1815 0
1025 -1683 0
-1025 -1032 1682 0
1032 -1682 0
1025 -1682 0
1031 -1681 0
1025 -1681 0
-1025 -1029 1679 0
1029 -1679 0
1050 -1747 0
1028 -1678 0
1025 -1678 0
1027 -1677 0
1025 -1677 0
1031 -1824 0
1050 -1675 0
1046 -1720 0
1024 -1675 0
1049 -1674 0
1024 -1674 0
1042 -1972 0
-1024 -1048 1673 0
1024 -1673 0
-1024 -1047 1672 0
1047 -1672 0
1024 -1672 0
-1024 -1046 1671 0
1024 -1670 0
-1024 -1044 1669 0
1044 -1669 0
1024 -1669 0
-1024 -1043 1668 0
1043 -1668 0
-1033 -1036 1850 0
-1024 -1042 1667 0
1024 -1666 0
-1028 -1045 1764 0
1040 -1665 0
1039 -1664 0
1024 -1664 0
1033 -1859 0
1038 -1663 0
-1040 -1044 1949 0
1024 -1663 0
-1024 -1037 1662 0
1037 -1662 0
1024 -1662 0
1036 -1661 0
-1024 -1035 1660 0
1035 -1660 0
-1024 -1034 1659 0
1034 -1659 0
1041 -1958 0
1024 -1659 0
-1024 -1032 1657 0
1032 -1657 0
-1024 -1031 1656 0
1031 -1656 0
-1024 -1027 1652 0
1024 -1652 0
-1024 -1026 1651 0
1026 -1651 0
1024 -1651 0
-1039 -1042 1937 0
-1023 -1050 1650 0
-1023 -1048 1648 0
1043 -1822 0
1048 -1648 0
1023 -1648 0
1049 -1768 0
-1023 -1046 1646 0
1046 -1646 0
-1023 -1045 1645 0
1045 -1645 0
-1023 -1044 1644 0
1044 -1644 0
1043 -1643 0
1042 -1642 0
-1023 -1041 1641 0
-1023 -1040 1640 0
1040 -1640 0
-1023 -1039 1639 0
1035 -1884 0
1039 -1639 0
-1023 -1038 1638 0
-1023 -1037 1637 0
1037 -1637 0
1023 -1637 0
-1023 -1036 1636 0
1036 -1636 0
-1023 -1035 1635 0
1023 -1635 0
-1023 -1034 1634 0
1034 -1634 0
1032 -1632 0
1031 -1631 0
1023 -1631 0
-1023 -1028 1628 0
1028 -1628 0
1041 -1964 0
1023 -1628 0
-1023 -1027 1627 0
1041 -1963 0
1023 -1627 0
-1023 -1026 1626 0
1044 -1966 0
1026 -1626 0
1023 -1626 0
-1025 -1037 1687 0
-1022 -1050 1625 0
1050 -1625 0
1049 -1954 0
-1022 -1049 1624 0
1049 -1624 0
-1022 -1048 1623 0
1048 -1623 0
-1022 -1047 1622 0
1044 -1916 0
-1028 -1034 1753 0
1047 -1622 0
1022 -1621 0
1042 -1914 0
1045 -1620 0
1043 -1618 0
-1022 -1042 1617 0
-1022 -1041 1616 0
1022 -1616 0
-1022 -1040 1615 0
1039 -1614 0
-1022 -1038 1613 0
1038 -1613 0
1022 -1613 0
-1022 -1036 1611 0
1036 -1611 0
1035 -1610 0
-1022 -1034 1609 0
1034 -1609 0
1022 -1609 0
1033 -1608 0
1022 -1608 0
-1024 -1041 1666 0
-1022 -1032 1607 0
1032 -1607 0
1022 -1607 0
-1022 -1031 1606 0
1031 -1606 0
1030 -1605 0
-1022 -1029 1604 0
1029 -1604 0
-1022 -1028 1603 0
1022 -1603 0
-1022 -1027 1602 0
1027 -1602 0
1022 -1602 0
1026 -1601 0
1022 -1601 0
-1021 -1050 1600 0
1021 -1599 0
1048 -1598 0
-1021 -1047 1597 0
1021 -1597 0
-1021 -1046 1596 0
1021 -1596 0
1045 -1595 0
1021 -1595 0
-1021 -1044 1594 0
1044 -1594 0
1021 -1594 0
-1021 -1043 1593 0
1043 -1593 0
1021 -1593 0
1021 -1592 0
1040 -1590 0
1021 -1590 0
1036 -1905 0
1039 -1589 0
-1021 -1037 1587 0
1021 -1587 0
1032 -1839 0
1036 -1586 0
1021 -1586 0
-1021 -1035 1585 0
1021 -1585 0
1021 -1584 0
1021 -1583 0
1027 -1740 0
1032 -1582 0
1031 -1581 0
1021 -1581 0
-1021 -1030 1580 0
1021 -1580 0
1042 -1901 0
1041 -1838 0
-1021 -1029 1579 0
1028 -1578 0
1039 -1836 0
-1021 -1027 1577 0
1021 -1577 0
1026 -1576 0
-1020 -1050 1575 0
1049 -1574 0
1020 -1574 0
1048 -1573 0
1020 -1573 0
1047 -1572 0
1020 -1572 0
1046 -1571 0
1045 -1570 0
1020 -1570 0
1044 -1569 0
1020 -1569 0
-1020 -1043 1568 0
1043 -1568 0
1020 -1567 0
1020 -1566 0
1040 -1565 0
1020 -1565 0
-1020 -1039 1564 0
1036 -1898 0
1039 -1564 0
1020 -1564 0
-1020 -1038 1563 0
1020 -1563 0
-1020 -1037 1562 0
1020 -1562 0
-1020 -1036 1561 0
-1031 -1035 1814 0
1020 -1561 0
-1020 -1035 1560 0
1020 -1560 0
-1020 -1034 1559 0
1034 -1559 0
1020 -1559 0
-1020 -1033 1558 0
1033 -1558 0
-1030 -1045 1805 0
1020 -1558 0
-1020 -1032 1557 0
1032 -1557 0
1049 -1944 0
1031 -1556 0
1020 -1556 0
-1020 -1029 1554 0
1020 -1554 0
-1020 -1028 1553 0
-1020 -1027 1552 0
1027 -1552 0
1020 -1552 0
1026 -1551 0
1020 -1551 0
-1019 -1050 1550 0
1019 -1549 0
1048 -1548 0
1046 -1546 0
1045 -1545 0
1023 -1636 0
-1019 -1044 1544 0
-1019 -1043 1543 0
1043 -1543 0
1019 -1542 0
-1019 -1041 1541 0
1040 -1540 0
1050 -1880 0
1028 -1759 0
-1019 -1039 1539 0
1039 -1539 0
-1019 -1038 1538 0
1037 -1537 0
-1019 -1036 1536 0
1036 -1536 0
1019 -1536 0
1019 -1535 0
-1019 -1034 1534 0
1019 -1534 0
-1019 -1033 1533 0
-1036 -1045 1904 0
1019 -1533 0
-1019 -1032 1532 0
1019 -1532 0
-1019 -1031 1531 0
1027 -1728 0
1031 -1531 0
1019 -1531 0
1030 -1530 0
1019 -1530 0
1019 -1529 0
-1019 -1027 1527 0
1027 -1527 0
1026 -1526 0
-1028 -1043 1762 0
-1018 -1050 1525 0
-1018 -1049 1524 0
1018 -1524 0
1048 -1523 0
1018 -1523 0
1028 -1751 0
-1018 -1047 1522 0
1047 -1522 0
1018 -1522 0
1046 -1521 0
1018 -1521 0
1018 -1520 0
1044 -1519 0
1018 -1519 0
-1018 -1043 1518 0
1042 -1517 0
1037 -1777 0
1041 -1516 0
-1018 -1040 1515 0
1040 -1515 0
1018 -1514 0
-1018 -1038 1513 0
1038 -1513 0
1018 -1513 0
-1018 -1037 1512 0
1018 -1512 0
1036 -1511 0
1018 -1511 0
-1018 -1035 1510 0
1018 -1510 0
-1018 -1034 1509 0
1030 -1770 0
1034 -1509 0
1018 -1509 0
-1018 -1033 1508 0
1033 -1508 0
1018 -1508 0
-1018 -1032 1507 0
1018 -1506 0
1025 -1685 0
1030 -1505 0
1018 -1505 0
-1018 -1029 1504 0
1018 -1504 0
1018 -1503 0
-1018 -1027 1502 0
1046 -1951 0
1027 -1502 0
-1018 -1026 1501 0
1026 -1501 0
-1031 -1032 1811 0
1018 -1501 0
-1017 -1049 1499 0
1017 -1499 0
-1017 -1048 1498 0
1048 -1498 0
1017 -1498 0
1047 -1497 0
1017 -1497 0
1032 -1832 0
-1017 -1046 1496 0
1046 -1496 0
1017 -1496 0
-1017 -1045 1495 0
1044 -1494 0
1017 -1493 0
1017 -1492 0
-1017 -1041 1491 0
-1017 -1040 1490 0
1040 -1490 0
1017 -1490 0
-1017 -1039 1489 0
1039 -1489 0
1017 -1489 0
-1019 -1045 1545 0
1038 -1488 0
1017 -1488 0
-1017 -1037 1487 0
1037 -1487 0
1036 -1486 0
-1017 -1035 1485 0
1032 -1811 0
1035 -1485 0
1017 -1485 0
-1041 -1049 1963 0
-1017 -1034 1484 0
1034 -1484 0
-1017 -1033 1483 0
1030 -1809 0
1033 -1483 0
-1017 -1032 1482 0
1017 -1482 0
-1017 -1031 1481 0
1017 -1481 0
-1017 -1030 1480 0
-1038 -1044 1928 0
1030 -1480 0
1043 -1888 0
-1017 -1028 1478 0
1028 -1478 0
1017 -1478 0
1045 -1785 0
1027 -1477 0
1017 -1477 0
-1017 -1026 1476 0
1017 -1476 0
-1016 -1050 1475 0
1024 -1667 0
1050 -1475 0
1016 -1475 0
-1016 -1049 1474 0
-1016 -1048 1473 0
1048 -1473 0
-1016 -1047 1472 0
1047 -1472 0
1016 -1472 0
1026 -1715 0
-1016 -1046 1471 0
1046 -1471 0
-1034 -1050 1880 0
1016 -1471 0
-1016 -1045 1470 0
1016 -1470 0
-1016 -1044 1469 0
1044 -1469 0
1043 -1468 0
-1016 -1042 1467 0
1016 -1467 0
1016 -1466 0
-1035 -1045 1890 0
1045 -1742 0
-1016 -1040 1465 0
1036 -1710 0
1040 -1465 0
-1016 -1038 1463 0
1034 -1708 0
1038 -1463 0
1016 -1463 0
-1016 -1037 1462 0
1016 -1462 0
1043 -1717 0
-1016 -1036 1461 0
1036 -1461 0
1016 -1461 0
1035 -1460 0
1016 -1460 0
1016 -1459 0
-1016 -1033 1458 0
1016 -1458 0
-1035 -1037 1882 0
-1016 -1032 1457 0
1032 -1457 0
-1035 -1038 1883 0
1032 -1834 0
1031 -1771 0
1035 -1510 0
-1016 -1031 1456 0
-1016 -1030 1455 0
1016 -1455 0
-1016 -1029 1454 0
1016 -1454 0
1016 -1453 0
1046 -1905 0
1027 -1452 0
-1016 -1026 1451 0
1026 -1451 0
1042 -1956 0
1050 -1450 0
1049 -1449 0
1015 -1449 0
1015 -1448 0
1015 -1447 0
-1015 -1046 1446 0
1015 -1446 0
1045 -1445 0
1015 -1445 0
1035 -1885 0
1044 -1444 0
1015 -1444 0
-1015 -1043 1443 0
1043 -1443 0
1015 -1443 0
-1015 -1042 1442 0
1042 -1442 0
-1015 -1039 1439 0
1039 -1439 0
1015 -1439 0
-1015 -1038 1438 0
1038 -1438 0
1015 -1438 0
1036 -1436 0
1049 -1996 0
1035 -1435 0
1015 -1435 0
1015 -1434 0
1015 -1433 0
1032 -1432 0
1015 -1432 0
-1015 -1030 1430 0
1030 -1430 0
-1015 -1028 1428 0
-1015 -1027 1427 0
-1015 -1026 1426 0
1015 -1426 0
-1044 -1049 1984 0
-1014 -1050 1425 0
-1028 -1047 1766 0
1050 -1425 0
1024 -1671 0
1049 -1424 0
-1039 -1044 1939 0
1014 -1423 0
1047 -1422 0
-1014 -1046 1421 0
-1014 -1045 1420 0
1045 -1420 0
-1014 -1044 1419 0
1044 -1419 0
1014 -1419 0
-1014 -1043 1418 0
1014 -1418 0
-1014 -1042 1417 0
-1014 -1041 1416 0
1041 -1416 0
1040 -1415 0
1014 -1415 0
1039 -1414 0
1014 -1414 0
1038 -1413 0
-1014 -1037 1412 0
1035 -1410 0
-1014 -1033 1408 0
1033 -1408 0
1046 -1986 0
1032 -1407 0
-1014 -1031 1406 0
1045 -1987 0
1031 -1406 0
1037 -1587 0
-1014 -1030 1405 0
1026 -1722 0
1030 -1405 0
-1014 -1029 1404 0
1029 -1404 0
1014 -1404 0
-1014 -1028 1403 0
1029 -1772 0
1034 -1584 0
-1014 -1027 1402 0
1027 -1402 0
1021 -1591 0
1026 -1401 0
1050 -1400 0
1013 -1400 0
1024 -1668 0
1049 -1399 0
-1013 -1048 1398 0
1049 -1908 0
-1013 -1047 1397 0
1013 -1396 0
1047 -1906 0
-1013 -1045 1395 0
1013 -1395 0
1036 -1900 0
1044 -1394 0
1013 -1393 0
-1015 -1049 1449 0
1013 -1392 0
-1026 -1040 1714 0
-1013 -1041 1391 0
-1034 -1045 1875 0
-1026 -1039 1713 0
-1013 -1040 1390 0
-1040 -1047 1952 0
1040 -1390 0
-1013 -1039 1389 0
1038 -1388 0
-1024 -1040 1665 0
-1013 -1037 1387 0
1037 -1387 0
1013 -1387 0
1038 -1927 0
1046 -1421 0
-1013 -1036 1386 0
1036 -1386 0
1013 -1386 0
1050 -1997 0
1035 -1385 0
-1013 -1034 1384 0
-1013 -1032 1382 0
1032 -1382 0
-1013 -1031 1381 0
1031 -1381 0
1029 -1379 0
-1019 -1030 1530 0
1013 -1379 0
-1013 -1028 1378 0
1013 -1378 0
1026 -1376 0
-1012 -1050 1375 0
1050 -1375 0
1049 -1374 0
1012 -1374 0
1048 -1373 0
1018 -1502 0
-1012 -1047 1372 0
-1012 -1046 1371 0
1012 -1371 0
-1012 -1044 1369 0
-1012 -1043 1368 0
1034 -1873 0
1042 -1367 0
1041 -1366 0
1012 -1366 0
1040 -1365 0
1012 -1365 0
-1012 -1039 1364 0
1039 -1364 0
1012 -1364 0
-1012 -1038 1363 0
1038 -1363 0
-1012 -1037 1362 0
1037 -1362 0
1012 -1362 0
1036 -1411 0
-1012 -1036 1361 0
1049 -1971 0
1036 -1361 0
1034 -1867 0
-1012 -1035 1360 0
-1033 -1048 1862 0
1035 -1360 0
-1012 -1034 1359 0
1012 -1359 0
-1012 -1033 1358 0
1012 -1358 0
-1012 -1032 1357 0
1027 -1577 0
1032 -1357 0
1031 -1356 0
-1012 -1029 1354 0
1026 -1712 0
1029 -1354 0
1017 -1487 0
-1012 -1028 1353 0
1020 -1555 0
-1012 -1026 1351 0
-1037 -1043 1915 0
1022 -1612 0
1026 -1351 0
1038 -1897 0
-1011 -1050 1350 0
1042 -1872 0
1050 -1350 0
1011 -1350 0
1037 -1896 0
-1011 -1049 1349 0
1041 -1871 0
1049 -1349 0
-1042 -1047 1969 0
1011 -1349 0
1040 -1870 0
1048 -1348 0
-1034 -1039 1869 0
1039 -1869 0
1047 -1347 0
1038 -1868 0
1046 -1346 0
1011 -1346 0
-1011 -1044 1344 0
-1011 -1043 1343 0
1035 -1865 0
1043 -1343 0
-1011 -1042 1342 0
1042 -1342 0
1011 -1342 0
-1011 -1041 1341 0
1033 -1863 0
1041 -1341 0
-1017 -1047 1497 0
1011 -1341 0
1040 -1340 0
1039 -1339 0
1038 -1338 0
1011 -1338 0
1037 -1337 0
-1011 -1036 1336 0
1011 -1336 0
-1011 -1035 1335 0
1035 -1335 0
1011 -1335 0
-1011 -1033 1333 0
-1011 -1032 1332 0
1011 -1332 0
1011 -1331 0
1042 -1969 0
-1011 -1029 1329 0
1029 -1329 0
-1011 -1028 1328 0
1028 -1328 0
1011 -1328 0
-1011 -1027 1327 0
1041 -1956 0
1024 -1653 0
1027 -1327 0
1011 -1327 0
-1010 -1050 1325 0
1050 -1325 0
1010 -1325 0
-1010 -1049 1324 0
1010 -1324 0
1048 -1323 0
-1010 -1047 1322 0
1047 -1322 0
1010 -1322 0
-1010 -1046 1321 0
1010 -1321 0
-1010 -1045 1320 0
1010 -1320 0
1044 -1319 0
1010 -1319 0
1046 -1596 0
-1010 -1043 1318 0
1043 -1318 0
-1014 -1040 1415 0
1010 -1318 0
-1029 -1037 1777 0
-1010 -1042 1317 0
1042 -1317 0
-1010 -1041 1316 0
1010 -1315 0
-1010 -1039 1314 0
1031 -1820 0
1039 -1314 0
-1010 -1038 1313 0
1029 -1770 0
1038 -1313 0
1010 -1313 0
-1013 -1035 1385 0
-1010 -1037 1312 0
1037 -1312 0
1010 -1312 0
1010 -1311 0
1010 -1310 0
-1010 -1034 1309 0
1010 -1309 0
-1029 -1048 1788 0
1010 -1308 0
-1010 -1032 1307 0
1032 -1307 0
1010 -1307 0
-1010 -1031 1306 0
1031 -1306 0
1010 -1306 0
-1015 -1032 1432 0
-1010 -1030 1305 0
1030 -1305 0
-1010 -1029 1304 0
1010 -1304 0
-1010 -1028 1303 0
1028 -1303 0
1010 -1303 0
1027 -1302 0
1010 -1302 0
1010 -1301 0
-1009 -1050 1300 0
1050 -1300 0
1036 -1909 0
-1009 -1049 1299 0
1049 -1299 0
1017 -1500 0
-1009 -1048 1298 0
1048 -1298 0
-1009 -1047 1297 0
1009 -1296 0
1009 -1295 0
-1018 -1041 1516 0
-1009 -1044 1294 0
-1009 -1043 1293 0
1009 -1293 0
1020 -1557 0
-1009 -1042 1292 0
1042 -1292 0
1009 -1292 0
1034 -1878 0
1041 -1291 0
1009 -1291 0
-1009 -1040 1290 0
-1038 -1039 1923 0
-1032 -1043 1840 0
1040 -1290 0
1009 -1290 0
1049 -1599 0
1039 -1289 0
1009 -1289 0
1030 -1794 0
1038 -1288 0
1009 -1288 0
-1009 -1037 1287 0
1009 -1287 0
-1009 -1036 1286 0
1036 -1286 0
1009 -1286 0
1035 -1285 0
1009 -1285 0
-1009 -1034 1284 0
-1009 -1033 1283 0
1033 -1283 0
1030 -1792 0
-1009 -1032 1282 0
1009 -1281 0
1009 -1280 0
-1009 -1029 1279 0
1009 -1279 0
1009 -1278 0
1029 -1790 0
-1009 -1027 1277 0
1009 -1277 0
-1009 -1026 1276 0
1026 -1276 0
1009 -1276 0
-1031 -1049 1828 0
1029 -1779 0
-1008 -1050 1275 0
-1008 -1049 1274 0
-1008 -1048 1273 0
1010 -1316 0
-1008 -1046 1271 0
-1008 -1045 1270 0
-1008 -1044 1269 0
1044 -1269 0
1043 -1268 0
-1008 -1042 1267 0
-1008 -1040 1265 0
1049 -1978 0
1040 -1265 0
1039 -1264 0
1029 -1784 0
1037 -1262 0
-1020 -1048 1573 0
-1008 -1036 1261 0
-1008 -1035 1260 0
-1008 -1034 1259 0
1032 -1257 0
1031 -1256 0
-1008 -1030 1255 0
1030 -1255 0
1028 -1253 0
-1008 -1027 1252 0
1027 -1252 0
1030 -1280 0
-1008 -1026 1251 0
1026 -1251 0
1050 -1250 0
-1007 -1049 1249 0
1049 -1249 0
-1030 -1049 1809 0
-1007 -1048 1248 0
1048 -1248 0
1007 -1248 0
-1007 -1047 1247 0
1047 -1247 0
-1007 -1045 1245 0
1045 -1245 0
-1031 -1046 1825 0
1044 -1244 0
-1031 -1047 1826 0
-1017 -1042 1492 0
1043 -1243 0
-1007 -1042 1242 0
1041 -1241 0
1040 -1240 0
-1007 -1039 1239 0
1039 -1239 0
1007 -1239 0
1038 -1238 0
1007 -1238 0
1030 -1806 0
1037 -1237 0
1049 -1828 0
1028 -1758 0
1036 -1236 0
1050 -1955 0
1035 -1235 0
1007 -1234 0
-1007 -1033 1233 0
1050 -1650 0
1032 -1232 0
1045 -1904 0
1031 -1231 0
-1007 -1030 1230 0
-1018 -1028 1503 0
-1007 -1029 1229 0
-1007 -1028 1228 0
1027 -1227 0
-1026 -1042 1716 0
-1007 -1026 1226 0
1050 -1225 0
1006 -1225 0
-1006 -1049 1224 0
1049 -1224 0
-1015 -1036 1436 0
1006 -1224 0
1023 -1642 0
-1006 -1048 1223 0
1047 -1222 0
-1013 -1042 1392 0
-1006 -1045 1220 0
1044 -1219 0
-1032 -1041 1838 0
1021 -1579 0
-1006 -1043 1218 0
1043 -1218 0
-1006 -1042 1217 0
1042 -1217 0
1006 -1217 0
1041 -1946 0
-1006 -1041 1216 0
1006 -1216 0
-1006 -1040 1215 0
1040 -1215 0
1006 -1215 0
-1006 -1039 1214 0
-1039 -1041 1936 0
1006 -1214 0
1038 -1213 0
1030 -1799 0
1037 -1212 0
-1018 -1030 1505 0
1006 -1212 0
-1006 -1036 1211 0
1049 -1723 0
1035 -1210 0
1006 -1210 0
1034 -1209 0
-1006 -1033 1208 0
1006 -1208 0
1006 -1207 0
1006 -1206 0
-1006 -1030 1205 0
1021 -1598 0
1030 -1205 0
1006 -1205 0
-1006 -1029 1204 0
1047 -1976 0
1029 -1204 0
1006 -1204 0
-1006 -1028 1203 0
1028 -1203 0
1006 -1203 0
-1006 -1027 1202 0
1027 -1202 0
-1012 -1048 1373 0
1006 -1202 0
1033 -1458 0
-1006 -1026 1201 0
1006 -1201 0
-1005 -1050 1200 0
-1005 -1049 1199 0
1005 -1199 0
1013 -1397 0
-1005 -1048 1198 0
1035 -1886 0
1048 -1198 0
1005 -1198 0
1047 -1197 0
1005 -1197 0
1046 -1196 0
1005 -1196 0
-1015 -1044 1444 0
1043 -1193 0
1033 -1633 0
1042 -1192 0
1047 -1766 0
1041 -1191 0
1040 -1190 0
-1025 -1039 1689 0
1039 -1189 0
-1005 -1038 1188 0
1037 -1187 0
1027 -1627 0
1036 -1186 0
-1005 -1035 1185 0
1050 -1829 0
-1030 -1044 1804 0
1028 -1756 0
1035 -1185 0
1005 -1185 0
-1005 -1034 1184 0
1043 -1965 0
1034 -1184 0
1005 -1183 0
-1005 -1032 1182 0
1032 -1182 0
1005 -1182 0
-1005 -1031 1181 0
-1005 -1030 1180 0
1030 -1180 0
-1019 -1048 1548 0
-1005 -1029 1179 0
1005 -1179 0
-1019 -1047 1547 0
1006 -1209 0
-1005 -1028 1178 0
1005 -1178 0
1026 -1176 0
1005 -1176 0
1038 -1926 0
1004 -1175 0
-1004 -1049 1174 0
1037 -1917 0
1049 -1174 0
1038 -1929 0
-1024 -1039 1664 0
1004 -1174 0
1004 -1172 0
-1004 -1046 1171 0
1037 -1851 0
1004 -1171 0
-1004 -1045 1170 0
1045 -1170 0
-1004 -1044 1169 0
-1004 -1043 1168 0
1043 -1168 0
1041 -1641 0
-1020 -1042 1567 0
1004 -1168 0
1009 -1282 0
-1004 -1042 1167 0
1042 -1167 0
1004 -1167 0
-1004 -1041 1166 0
1041 -1166 0
-1004 -1040 1165 0
-1046 -1050 1994 0
1040 -1165 0
1046 -1446 0
1004 -1165 0
-1037 -1039 1911 0
-1004 -1039 1164 0
1032 -1751 0
-1019 -1035 1535 0
1039 -1164 0
-1009 -1035 1285 0
-1004 -1038 1163 0
1004 -1163 0
-1004 -1037 1162 0
1030 -1749 0
1037 -1162 0
1045 -1370 0
1004 -1162 0
-1004 -1036 1161 0
1027 -1652 0
1036 -1161 0
-1005 -1027 1177 0
1004 -1161 0
1044 -1544 0
-1004 -1035 1160 0
1037 -1910 0
1004 -1160 0
-1004 -1034 1159 0
1026 -1713 0
1034 -1159 0
1037 -1911 0
1050 -1175 0
1004 -1159 0
1037 -1912 0
1042 -1716 0
1004 -1158 0
-1004 -1032 1157 0
1037 -1913 0
1004 -1157 0
-1004 -1031 1156 0
-1015 -1035 1435 0
-1006 -1031 1206 0
1004 -1156 0
1030 -1155 0
1029 -1785 0
-1004 -1029 1154 0
1004 -1154 0
-1004 -1028 1153 0
1028 -1153 0
1045 -1395 0
1004 -1153 0
1032 -1845 0
-1004 -1027 1152 0
1027 -1152 0
1040 -1899 0
-1004 -1026 1151 0
1026 -1151 0
-1021 -1036 1586 0
1004 -1151 0
1049 -1149 0
-1022 -1046 1621 0
1003 -1149 0
1003 -1147 0
-1021 -1031 1581 0
-1003 -1046 1146 0
1046 -1146 0
1045 -1875 0
1035 -1585 0
1044 -1144 0
1003 -1144 0
1043 -1143 0
1003 -1143 0
1033 -1583 0
-1014 -1026 1401 0
-1011 -1026 1326 0
1042 -1142 0
1003 -1142 0
-1003 -1041 1141 0
1041 -1141 0
1040 -1140 0
1003 -1140 0
1039 -1139 0
1003 -1139 0
-1003 -1038 1138 0
1037 -1137 0
1038 -1933 0
1003 -1137 0
-1003 -1034 1134 0
1034 -1134 0
1003 -1134 0
-1003 -1033 1133 0
1003 -1133 0
-1003 -1032 1132 0
1028 -1353 0
1032 -1132 0
1003 -1132 0
-1003 -1031 1131 0
1031 -1131 0
1003 -1131 0
1036 -1901 0
-1003 -1030 1130 0
1022 -1620 0
1030 -1130 0
-1003 -1029 1129 0
1050 -1150 0
1003 -1129 0
1049 -1274 0
-1003 -1028 1128 0
1003 -1128 0
-1003 -1027 1127 0
-1033 -1034 1848 0
1026 -1126 0
1031 -1456 0
-1002 -1050 1125 0
1002 -1125 0
1004 -1155 0
1049 -1124 0
1002 -1124 0
-1002 -1048 1123 0
1035 -1849 0
1048 -1123 0
1002 -1123 0
-1020 -1044 1569 0
1047 -1122 0
-1011 -1034 1334 0
1002 -1122 0
1046 -1121 0
1002 -1121 0
-1002 -1045 1120 0
1045 -1120 0
-1024 -1038 1663 0
1002 -1120 0
-1002 -1044 1119 0
-1028 -1032 1751 0
1044 -1119 0
1002 -1119 0
1002 -1118 0
1002 -1117 0
-1002 -1041 1116 0
1041 -1116 0
1002 -1116 0
-1002 -1040 1115 0
1002 -1115 0
-1002 -1039 1114 0
-1028 -1037 1756 0
1039 -1114 0
1002 -1114 0
-1002 -1038 1113 0
1002 -1113 0
-1002 -1037 1112 0
1002 -1112 0
1036 -1111 0
1002 -1111 0
1034 -1109 0
-1022 -1033 1608 0
1002 -1109 0
-1002 -1033 1108 0
1033 -1108 0
1002 -1108 0
-1002 -1032 1107 0
1045 -1719 0
1032 -1107 0
1002 -1107 0
1006 -1213 0
-1002 -1031 1106 0
1002 -1106 0
-1002 -1030 1105 0
-1049 -1050 2000 0
1021 -1578 0
1030 -1105 0
-1002 -1029 1104 0
1002 -1104 0
1002 -1103 0
-1002 -1027 1102 0
1002 -1102 0
-1002 -1026 1101 0
1026 -1101 0
1002 -1101 0
-1001 -1050 1100 0
1041 -1541 0
1050 -1100 0
1001 -1100 0
1038 -1923 0
1004 -1164 0
1049 -1099 0
1001 -1099 0
-1001 -1048 1098 0
1048 -1098 0
1001 -1098 0
1035 -1887 0
-1001 -1047 1097 0
1047 -1097 0
1001 -1097 0
-1001 -1046 1096 0
1046 -1096 0
-1025 -1042 1692 0
-1001 -1045 1095 0
1045 -1095 0
1001 -1095 0
-1001 -1044 1094 0
1035 -1535 0
1044 -1094 0
1043 -1093 0
1001 -1093 0
-1001 -1042 1092 0
1001 -1092 0
-1001 -1041 1091 0
-1015 -1033 1433 0
1001 -1091 0
-1027 -1048 1745 0
-1001 -1040 1090 0
1040 -1090 0
1001 -1090 0
1001 -1089 0
-1001 -1038 1088 0
-1012 -1049 1374 0
-1002 -1028 1103 0
1001 -1088 0
1037 -1087 0
-1027 -1047 1744 0
-1001 -1039 1089 0
1001 -1086 0
-1042 -1043 1965 0
-1001 -1035 1085 0
1001 -1085 0
1029 -1279 0
-1001 -1034 1084 0
1034 -1084 0
1001 -1084 0
1026 -1717 0
-1001 -1033 1083 0
1026 -1718 0
1033 -1083 0
1001 -1083 0
-1001 -1032 1082 0
1032 -1082 0
1001 -1082 0
-1001 -1031 1081 0
1001 -1081 0
1030 -1080 0
-1045 -1048 1988 0
1001 -1080 0
1029 -1079 0
1001 -1079 0
-1001 -1028 1078 0
1028 -1078 0
1001 -1078 0
-1001 -1027 1077 0
1001 -1077 0
-1001 -1026 1076 0
-1007 -1050 1250 0
1026 -1076 0
1001 -1076 0
1000 -1075 0
-1000 -1049 1074 0
1049 -1074 0
1038 -1263 0
-1000 -1048 1073 0
1000 -1073 0
1037 -1512 0
1046 -1071 0
1000 -1071 0
-1000 -1045 1070 0
-1000 -1044 1069 0
1032 -1844 0
1044 -1069 0
1043 -1068 0
1041 -1738 0
1000 -1068 0
1029 -1787 0
1042 -1067 0
-1000 -1041 1066 0
1041 -1066 0
1000 -1066 0
1031 -1506 0
1040 -1065 0
-1020 -1026 1551 0
1000 -1065 0
1039 -1064 0
1000 -1064 0
1049 -1989 0
-1000 -1038 1063 0
1000 -1063 0
-1000 -1037 1062 0
1000 -1062 0
-1000 -1036 1061 0
1000 -1061 0
1035 -1060 0
-1010 -1044 1319 0
-1000 -1035 1060 0
1000 -1060 0
-1000 -1034 1059 0
1000 -1059 0
1045 -1495 0
1000 -1058 0
-1000 -1032 1057 0
-1009 -1038 1288 0
1032 -1057 0
1000 -1057 0
-1000 -1031 1056 0
1031 -1056 0
1030 -1055 0
1000 -1055 0
-1000 -1029 1054 0
-1000 -1028 1053 0
1020 -1575 0
1028 -1053 0
-1029 -1035 1775 0
1000 -1053 0
-1000 -1027 1052 0
1027 -1052 0
1024 -1665 0
1032 -1207 0
-1000 -1026 1051 0
1017 -1494 0
1026 -1051 0
27 -999 0
26 -998 0
25 -997 0
18 -997 0
1012 -1357 0
-9 -18 -24 996 0
24 -996 0
-1021 -1038 1588 0
-9 -18 -23 995 0
1038 -1930 0
1037 -1867 0
1045 -1345 0
23 -995 0
-9 -18 -22 994 0
1043 -1293 0
22 -994 0
-1013 -1050 1400 0
18 -994 0
9 -994 0
1035 -1881 0
21 -993 0
18 -993 0
9 -993 0
18 -992 0
9 -992 0
19 -991 0
18 -991 0
9 -991 0
27 -990 0
-1015 -1031 1431 0
17 -990 0
9 -990 0
1047 -1272 0
26 -989 0
17 -989 0
9 -989 0
1046 -1941 0
-9 -17 -25 988 0
-1012 -1040 1365 0
25 -988 0
1028 -1553 0
1049 -1549 0
-9 -17 -24 987 0
24 -987 0
-9 -17 -23 986 0
23 -986 0
17 -986 0
1006 -1218 0
9 -986 0
22 -985 0
17 -985 0
1006 -1219 0
9 -985 0
-1028 -1036 1755 0
1040 -1115 0
-9 -17 -21 984 0
17 -984 0
1048 -1073 0
-9 -17 -20 983 0
17 -983 0
19 -982 0
1006 -1222 0
9 -982 0
-9 -16 -27 981 0
27 -981 0
16 -981 0
1006 -1223 0
9 -981 0
1040 -1946 0
26 -980 0
1006 -1220 0
9 -980 0
-9 -16 -25 979 0
25 -979 0
16 -979 0
1006 -1221 0
9 -979 0
-1033 -1042 1856 0
1013 -1394 0
-9 -16 -24 978 0
-1001 -1049 1099 0
24 -978 0
23 -977 0
16 -977 0
9 -977 0
1035 -1085 0
-9 -16 -22 976 0
-1025 -1044 1694 0
22 -976 0
16 -976 0
9 -976 0
1018 -1525 0
-9 -16 -21 975 0
-1007 -1031 1231 0
21 -975 0
9 -975 0
-9 -16 -20 974 0
-9 -16 -19 973 0
19 -973 0
16 -973 0
-9 -15 -27 972 0
15 -972 0
-1010 -1026 1301 0
9 -972 0
26 -971 0
15 -971 0
-9 -15 -25 970 0
15 -970 0
1032 -1332 0
-9 -15 -24 969 0
15 -969 0
-9 -15 -23 968 0
1003 -1145 0
23 -968 0
15 -968 0
1029 -1782 0
-1010 -1048 1323 0
-1000 -1047 1072 0
-9 -15 -22 967 0
22 -967 0
15 -967 0
-1041 -1050 1964 0
-9 -15 -21 966 0
21 -966 0
1027 -1127 0
15 -966 0
1039 -1514 0
-9 -15 -20 965 0
-1033 -1050 1864 0
-9 -15 -19 964 0
19 -964 0
-1000 -1040 1065 0
27 -963 0
1014 -1407 0
14 -963 0
-9 -14 -26 962 0
1040 -1924 0
26 -962 0
1014 -1406 0
14 -962 0
-9 -14 -25 961 0
25 -961 0
14 -961 0
-9 -14 -24 960 0
1004 -1169 0
24 -960 0
14 -960 0
-1028 -1050 1769 0
-9 -14 -23 959 0
14 -959 0
1043 -1393 0
22 -958 0
-1027 -1031 1728 0
-1021 -1042 1592 0
14 -958 0
9 -958 0
-9 -14 -21 957 0
21 -957 0
14 -957 0
9 -957 0
-9 -14 -20 956 0
14 -956 0
-9 -14 -19 955 0
19 -955 0
27 -954 0
9 -954 0
1047 -1372 0
26 -953 0
9 -953 0
25 -952 0
-1010 -1040 1315 0
24 -951 0
9 -951 0
-9 -13 -23 950 0
23 -950 0
-1003 -1026 1126 0
9 -950 0
22 -949 0
13 -949 0
-1022 -1045 1620 0
9 -949 0
21 -948 0
13 -948 0
20 -947 0
-1005 -1043 1193 0
19 -946 0
9 -946 0
-1034 -1041 1871 0
1046 -1621 0
27 -945 0
12 -945 0
9 -945 0
-9 -12 -26 944 0
26 -944 0
12 -944 0
1009 -1300 0
9 -944 0
1040 -1854 0
25 -943 0
12 -943 0
1009 -1299 0
9 -943 0
1038 -1798 0
24 -942 0
9 -942 0
-1013 -1033 1383 0
1045 -1295 0
23 -941 0
12 -941 0
9 -941 0
22 -940 0
-9 -12 -21 939 0
21 -939 0
-9 -12 -20 938 0
-9 -12 -19 937 0
-1034 -1049 1879 0
19 -937 0
-1001 -1037 1087 0
-9 -11 -27 936 0
27 -936 0
9 -936 0
1039 -1736 0
26 -935 0
-1029 -1049 1789 0
9 -935 0
-9 -11 -25 934 0
25 -934 0
24 -933 0
16 -978 0
-9 -11 -23 932 0
23 -932 0
9 -932 0
1013 -1382 0
13 -954 0
-9 -11 -22 931 0
22 -931 0
9 -931 0
1035 -1814 0
21 -930 0
9 -930 0
1012 -1369 0
19 -928 0
-9 -10 -27 927 0
27 -927 0
10 -927 0
-9 -10 -26 926 0
26 -926 0
-9 -10 -25 925 0
1044 -1619 0
25 -925 0
10 -924 0
23 -923 0
10 -923 0
1039 -1799 0
-9 -10 -22 922 0
22 -922 0
-1012 -1041 1366 0
21 -921 0
-9 -10 -20 920 0
20 -920 0
10 -920 0
-1021 -1026 1576 0
-1005 -1033 1183 0
1001 -1094 0
-9 -10 -19 919 0
1014 -1422 0
-8 -18 -27 918 0
1041 -1886 0
27 -918 0
18 -918 0
-1026 -1045 1719 0
26 -917 0
18 -917 0
-8 -18 -25 916 0
1040 -1949 0
1039 -1884 0
25 -916 0
8 -916 0
-8 -18 -24 915 0
1038 -1883 0
24 -915 0
-8 -18 -23 914 0
-1042 -1045 1967 0
1037 -1882 0
23 -914 0
1022 -1625 0
1029 -1054 0
18 -914 0
1022 -1605 0
-8 -18 -22 913 0
-1020 -1049 1574 0
22 -913 0
1022 -1624 0
-9 -18 -26 998 0
18 -913 0
-8 -18 -21 912 0
1040 -1690 0
21 -912 0
-1032 -1039 1836 0
-8 -18 -20 911 0
1012 -1353 0
20 -911 0
8 -911 0
-8 -18 -19 910 0
19 -910 0
18 -910 0
8 -910 0
27 -909 0
17 -909 0
-1021 -1033 1583 0
-1003 -1048 1148 0
8 -909 0
-8 -17 -26 908 0
8 -908 0
1040 -1954 0
-1018 -1048 1523 0
1048 -1448 0
25 -907 0
24 -906 0
-1042 -1049 1971 0
17 -906 0
1028 -1768 0
-8 -17 -23 905 0
-1025 -1030 1680 0
23 -905 0
17 -905 0
22 -904 0
1030 -1230 0
-8 -17 -21 903 0
21 -903 0
1026 -1705 0
-8 -17 -20 902 0
-1026 -1028 1702 0
20 -902 0
17 -902 0
-1026 -1027 1701 0
1011 -1343 0
19 -901 0
-1022 -1037 1612 0
17 -901 0
1042 -1967 0
27 -900 0
16 -900 0
-1035 -1036 1881 0
1029 -1771 0
-8 -16 -26 899 0
-1020 -1045 1570 0
26 -899 0
-8 -16 -25 898 0
25 -898 0
-1035 -1046 1891 0
-1016 -1039 1464 0
-8 -16 -24 897 0
24 -897 0
-1021 -1041 1591 0
16 -897 0
1033 -1533 0
1042 -1092 0
-8 -16 -23 896 0
1004 -1170 0
23 -896 0
16 -896 0
1000 -1051 0
-8 -16 -22 895 0
22 -895 0
16 -895 0
-8 -16 -21 894 0
21 -894 0
16 -894 0
-8 -16 -20 893 0
20 -893 0
1041 -1820 0
-8 -16 -19 892 0
-1023 -1029 1629 0
-8 -15 -27 891 0
27 -891 0
-8 -15 -26 890 0
26 -890 0
25 -889 0
15 -889 0
-8 -15 -24 888 0
24 -888 0
15 -888 0
1041 -1466 0
23 -887 0
15 -887 0
-8 -15 -22 886 0
-1038 -1042 1926 0
22 -886 0
15 -886 0
-8 -15 -21 885 0
21 -885 0
-8 -15 -20 884 0
20 -884 0
-8 -15 -19 883 0
19 -883 0
1000 -1052 0
27 -882 0
1005 -1177 0
14 -882 0
-8 -14 -26 881 0
1047 -1172 0
26 -881 0
-1007 -1027 1227 0
1005 -1190 0
14 -881 0
1002 -1105 0
-8 -14 -25 880 0
25 -880 0
1005 -1191 0
14 -880 0
-8 -14 -24 879 0
1038 -1735 0
24 -879 0
1005 -1188 0
14 -879 0
1003 -1126 0
-8 -14 -23 878 0
1037 -1734 0
23 -878 0
1005 -1189 0
14 -878 0
-8 -14 -22 877 0
22 -877 0
21 -876 0
-8 -14 -20 875 0
20 -875 0
1005 -1200 0
-9 -12 -25 943 0
14 -875 0
-8 -14 -19 874 0
19 -874 0
14 -874 0
1039 -1214 0
-8 -13 -27 873 0
-1004 -1033 1158 0
27 -873 0
26 -872 0
-8 -13 -25 871 0
25 -871 0
24 -870 0
23 -869 0
1012 -1370 0
20 -992 0
-8 -13 -22 868 0
22 -868 0
21 -867 0
13 -867 0
-8 -13 -20 866 0
20 -866 0
-1002 -1049 1124 0
19 -865 0
-1027 -1045 1742 0
-8 -12 -27 864 0
1000 -1074 0
27 -864 0
12 -864 0
-8 -12 -26 863 0
1048 -1223 0
26 -863 0
12 -863 0
1043 -1493 0
1048 -1273 0
25 -862 0
12 -862 0
1042 -1492 0
24 -861 0
12 -861 0
1026 -1226 0
-8 -12 -22 859 0
22 -859 0
-8 -12 -21 858 0
21 -858 0
20 -857 0
19 -856 0
12 -856 0
9 -974 0
-8 -11 -27 855 0
1045 -1470 0
1000 -1067 0
27 -855 0
1020 -1553 0
-8 -11 -26 854 0
26 -854 0
-1001 -1036 1086 0
25 -853 0
24 -852 0
1025 -1689 0
1033 -1183 0
-8 -11 -23 851 0
1041 -1566 0
-1020 -1030 1555 0
23 -851 0
22 -850 0
1028 -1752 0
1032 -1507 0
-8 -11 -21 849 0
21 -849 0
11 -848 0
1047 -1995 0
-8 -11 -19 847 0
1012 -1354 0
19 -847 0
11 -847 0
-9 -14 -22 958 0
-8 -10 -27 846 0
1049 -1324 0
1000 -1072 0
27 -846 0
-1030 -1034 1794 0
10 -846 0
-8 -10 -26 845 0
26 -845 0
10 -845 0
-8 -10 -25 844 0
25 -844 0
10 -844 0
-8 -10 -24 843 0
1046 -1321 0
24 -843 0
10 -843 0
-9 -10 -23 923 0
-8 -10 -23 842 0
1045 -1320 0
23 -842 0
1036 -1561 0
-8 -10 -22 841 0
22 -841 0
-8 -10 -21 840 0
21 -840 0
19 -838 0
-7 -18 -27 837 0
27 -837 0
1028 -1503 0
-7 -18 -26 836 0
1043 -1518 0
26 -836 0
18 -836 0
-9 -18 -20 992 0
8 -901 0
7 -836 0
-7 -18 -25 835 0
25 -835 0
18 -835 0
8 -898 0
7 -835 0
8 -899 0
7 -834 0
1050 -1125 0
23 -833 0
8 -896 0
7 -833 0
-7 -18 -22 832 0
22 -832 0
8 -897 0
7 -832 0
21 -831 0
8 -894 0
7 -831 0
-7 -18 -20 830 0
1015 -1450 0
20 -830 0
18 -830 0
-1027 -1030 1727 0
19 -829 0
-7 -17 -27 828 0
-1011 -1030 1330 0
27 -828 0
17 -828 0
-7 -17 -26 827 0
26 -827 0
-1023 -1042 1642 0
8 -890 0
7 -827 0
-7 -17 -25 826 0
25 -826 0
1008 -1251 0
8 -891 0
7 -826 0
-1034 -1042 1872 0
-7 -17 -24 825 0
1042 -1592 0
24 -825 0
1008 -1256 0
8 -888 0
7 -825 0
1041 -1591 0
1046 -1371 0
23 -824 0
1008 -1257 0
8 -889 0
7 -824 0
-7 -17 -22 823 0
17 -987 0
22 -823 0
1008 -1262 0
8 -886 0
7 -823 0
-7 -17 -21 822 0
21 -822 0
17 -822 0
1008 -1263 0
8 -887 0
7 -822 0
-7 -17 -20 821 0
-1039 -1045 1940 0
17 -821 0
1008 -1252 0
8 -884 0
7 -821 0
-7 -17 -19 820 0
19 -820 0
-7 -16 -27 819 0
1037 -1916 0
-7 -17 -23 824 0
27 -819 0
16 -819 0
16 -818 0
1008 -1259 0
8 -883 0
7 -818 0
1037 -1914 0
-7 -16 -25 817 0
-1029 -1040 1780 0
1047 -1147 0
25 -817 0
-1011 -1047 1347 0
24 -816 0
23 -815 0
-7 -16 -22 814 0
22 -814 0
16 -814 0
8 -879 0
7 -814 0
-7 -16 -21 813 0
21 -813 0
1008 -1260 0
8 -876 0
7 -813 0
-7 -16 -20 812 0
1008 -1261 0
8 -877 0
7 -812 0
-1000 -1042 1067 0
-7 -16 -19 811 0
19 -811 0
16 -811 0
1031 -1822 0
-7 -15 -27 810 0
1041 -1666 0
27 -810 0
15 -810 0
26 -809 0
8 -872 0
7 -809 0
-7 -15 -25 808 0
1040 -1737 0
25 -808 0
8 -873 0
7 -808 0
-7 -15 -24 807 0
24 -807 0
-7 -15 -23 806 0
15 -806 0
-7 -15 -22 805 0
22 -805 0
21 -804 0
15 -804 0
-7 -15 -20 803 0
8 -866 0
7 -803 0
19 -802 0
8 -867 0
7 -802 0
-7 -14 -27 801 0
8 -864 0
7 -801 0
1018 -1516 0
-7 -14 -26 800 0
-1025 -1031 1681 0
26 -800 0
8 -865 0
7 -800 0
1043 -1418 0
25 -799 0
9 -995 0
14 -799 0
-7 -14 -24 798 0
24 -798 0
9 -996 0
14 -798 0
8 -863 0
7 -798 0
-1034 -1038 1868 0
23 -797 0
14 -797 0
8 -860 0
7 -797 0
22 -796 0
14 -796 0
8 -861 0
7 -796 0
-1038 -1048 1932 0
-7 -14 -21 795 0
21 -795 0
9 -999 0
14 -795 0
8 -858 0
7 -795 0
-1011 -1037 1337 0
14 -794 0
-7 -14 -19 793 0
19 -793 0
9 -973 0
14 -793 0
8 -856 0
7 -793 0
-7 -13 -27 792 0
27 -792 0
26 -791 0
-7 -13 -25 790 0
1040 -1819 0
-1026 -1046 1720 0
25 -790 0
1046 -1271 0
-7 -13 -24 789 0
24 -789 0
13 -789 0
1040 -1950 0
1047 -1397 0
-7 -13 -23 788 0
13 -788 0
-7 -13 -22 787 0
22 -787 0
13 -787 0
-7 -13 -21 786 0
21 -786 0
13 -786 0
-7 -13 -20 785 0
20 -785 0
-7 -13 -19 784 0
19 -784 0
27 -783 0
1015 -1427 0
-1007 -1041 1241 0
-9 -11 -24 933 0
12 -783 0
-1043 -1044 1973 0
-7 -12 -26 782 0
12 -782 0
25 -781 0
-1005 -1042 1192 0
12 -781 0
-7 -12 -24 780 0
24 -780 0
1015 -1430 0
12 -780 0
-9 -14 -27 963 0
-7 -12 -23 779 0
23 -779 0
1015 -1431 0
-1008 -1033 1258 0
12 -779 0
1008 -1266 0
8 -842 0
7 -779 0
-7 -12 -22 778 0
-1023 -1033 1633 0
22 -778 0
12 -778 0
1008 -1267 0
8 -843 0
7 -778 0
-7 -12 -21 777 0
21 -777 0
12 -777 0
1008 -1272 0
8 -840 0
7 -777 0
1023 -1634 0
-7 -12 -20 776 0
15 -964 0
20 -776 0
1008 -1273 0
8 -841 0
7 -776 0
-7 -12 -19 775 0
-1023 -1030 1630 0
19 -775 0
8 -838 0
7 -775 0
-7 -11 -27 774 0
27 -774 0
8 -839 0
7 -774 0
-7 -11 -26 773 0
-1006 -1032 1207 0
26 -773 0
-7 -11 -25 772 0
1040 -1837 0
25 -772 0
-1013 -1038 1388 0
-7 -11 -24 771 0
24 -771 0
-7 -11 -23 770 0
1038 -1835 0
23 -770 0
11 -770 0
-1007 -1035 1235 0
22 -769 0
11 -769 0
-1025 -1040 1690 0
-7 -11 -21 768 0
21 -768 0
1030 -1802 0
-7 -11 -20 767 0
20 -767 0
1008 -1254 0
7 -767 0
-7 -11 -19 766 0
-1014 -1039 1414 0
-1007 -1032 1232 0
11 -766 0
-7 -10 -27 765 0
1041 -1781 0
27 -765 0
10 -765 0
7 -765 0
-7 -10 -26 764 0
26 -764 0
-1006 -1038 1213 0
10 -764 0
7 -764 0
1039 -1779 0
25 -763 0
-1005 -1040 1190 0
10 -763 0
8 -918 0
-7 -10 -24 762 0
24 -762 0
10 -762 0
-7 -10 -23 761 0
23 -761 0
10 -761 0
-7 -10 -22 760 0
-1018 -1046 1521 0
17 -982 0
-9 -11 -26 935 0
22 -760 0
18 -998 0
-7 -10 -21 759 0
17 -988 0
21 -759 0
10 -759 0
20 -758 0
-1026 -1033 1707 0
10 -758 0
10 -757 0
-6 -18 -27 756 0
27 -756 0
-1033 -1041 1855 0
13 -952 0
18 -756 0
-6 -18 -26 755 0
13 -953 0
18 -755 0
6 -755 0
-6 -18 -25 754 0
1047 -1861 0
6 -754 0
-6 -18 -24 753 0
1012 -1368 0
24 -753 0
-1016 -1028 1453 0
-8 -14 -27 882 0
6 -753 0
-6 -18 -23 752 0
23 -752 0
1014 -1401 0
-1008 -1029 1254 0
18 -752 0
6 -752 0
8 -900 0
7 -837 0
-6 -18 -22 751 0
18 -996 0
22 -751 0
18 -751 0
6 -751 0
-6 -18 -21 750 0
21 -750 0
1048 -1920 0
6 -750 0
20 -749 0
-1014 -1048 1423 0
1033 -1333 0
6 -749 0
1014 -1405 0
18 -748 0
6 -748 0
10 -760 0
-6 -17 -27 747 0
1038 -1925 0
-8 -15 -25 889 0
27 -747 0
17 -747 0
6 -747 0
-1033 -1039 1853 0
-6 -17 -26 746 0
26 -746 0
6 -746 0
25 -745 0
1030 -1655 0
6 -745 0
-6 -17 -24 744 0
1014 -1408 0
17 -744 0
6 -744 0
1021 -1589 0
-1010 -1035 1310 0
-6 -17 -23 743 0
23 -743 0
1014 -1409 0
-1003 -1037 1137 0
17 -743 0
6 -743 0
-6 -17 -22 742 0
22 -742 0
6 -742 0
6 -741 0
1019 -1539 0
-1003 -1040 1140 0
20 -740 0
1014 -1413 0
17 -739 0
-6 -16 -27 738 0
1038 -1934 0
1003 -1136 0
27 -738 0
11 -928 0
16 -738 0
1040 -1615 0
26 -737 0
11 -933 0
16 -737 0
1026 -1720 0
-7 -16 -26 818 0
-6 -16 -25 736 0
25 -736 0
11 -934 0
16 -736 0
24 -735 0
11 -931 0
-8 -10 -20 839 0
16 -735 0
1031 -1181 0
-6 -16 -23 734 0
-1005 -1046 1196 0
23 -734 0
11 -932 0
16 -734 0
-6 -16 -22 733 0
-1005 -1044 1194 0
21 -732 0
1040 -1955 0
-6 -16 -20 731 0
1019 -1548 0
20 -731 0
-6 -16 -19 730 0
1003 -1127 0
27 -729 0
15 -729 0
-6 -15 -26 728 0
26 -728 0
1035 -1310 0
-6 -15 -25 727 0
1048 -1148 0
25 -727 0
15 -727 0
-6 -15 -24 726 0
1011 -1334 0
19 -892 0
24 -726 0
15 -726 0
-7 -18 -23 833 0
-6 -15 -23 725 0
-1037 -1046 1918 0
23 -725 0
-1045 -1050 1990 0
-6 -15 -22 724 0
22 -724 0
15 -724 0
1020 -1568 0
-6 -15 -21 723 0
-7 -14 -23 797 0
21 -723 0
-6 -15 -20 722 0
1048 -1398 0
-6 -15 -19 721 0
19 -721 0
-6 -14 -27 720 0
1003 -1150 0
27 -720 0
-1015 -1037 1437 0
14 -720 0
1035 -1893 0
26 -719 0
14 -719 0
1022 -1606 0
-1003 -1042 1142 0
-6 -14 -25 718 0
14 -718 0
-6 -14 -24 717 0
1011 -1339 0
24 -717 0
9 -921 0
14 -717 0
1036 -1136 0
-6 -14 -23 716 0
-9 -11 -20 929 0
23 -716 0
9 -922 0
14 -716 0
1035 -1135 0
-6 -14 -22 715 0
17 -903 0
22 -715 0
-6 -14 -21 714 0
21 -714 0
16 -974 0
20 -713 0
14 -712 0
-6 -13 -27 711 0
-1042 -1046 1968 0
1003 -1141 0
27 -711 0
26 -710 0
9 -955 0
13 -710 0
-6 -13 -25 709 0
1039 -1713 0
25 -709 0
9 -962 0
13 -709 0
-6 -13 -24 708 0
9 -961 0
13 -708 0
-1042 -1044 1966 0
1006 -1211 0
-6 -13 -23 707 0
23 -707 0
-6 -13 -22 706 0
22 -706 0
-6 -13 -21 705 0
21 -705 0
-6 -13 -20 704 0
20 -704 0
-6 -13 -19 703 0
19 -703 0
-6 -12 -27 702 0
-1005 -1026 1176 0
1003 -1148 0
27 -702 0
-1002 -1034 1109 0
12 -702 0
26 -701 0
12 -701 0
-6 -12 -25 700 0
25 -700 0
12 -700 0
1011 -1329 0
19 -919 0
24 -699 0
12 -699 0
-6 -12 -23 698 0
-1018 -1044 1519 0
23 -698 0
-9 -12 -24 942 0
12 -698 0
-1007 -1037 1237 0
-6 -12 -22 697 0
-1027 -1043 1740 0
22 -697 0
12 -697 0
21 -696 0
-1024 -1029 1654 0
9 -971 0
-6 -12 -20 695 0
-1023 -1043 1643 0
-6 -12 -19 694 0
19 -694 0
27 -693 0
-6 -11 -26 692 0
-6 -11 -25 691 0
25 -691 0
1012 -1352 0
-6 -11 -24 690 0
24 -690 0
11 -690 0
1011 -1345 0
-6 -11 -23 689 0
1012 -1367 0
-1011 -1048 1348 0
23 -689 0
11 -689 0
-6 -11 -22 688 0
-1002 -1043 1118 0
22 -688 0
-1026 -1029 1703 0
18 -995 0
21 -687 0
-6 -17 -25 745 0
-6 -11 -20 686 0
20 -686 0
11 -686 0
-6 -11 -19 685 0
19 -685 0
11 -685 0
1043 -1803 0
10 -684 0
-6 -10 -26 683 0
26 -683 0
-6 -10 -25 682 0
-1022 -1026 1601 0
25 -682 0
10 -682 0
-6 -10 -24 681 0
24 -681 0
10 -681 0
-6 -10 -23 680 0
23 -680 0
10 -680 0
-6 -10 -22 679 0
1026 -1326 0
22 -679 0
1030 -1330 0
10 -679 0
-6 -10 -21 678 0
21 -678 0
1044 -1874 0
10 -678 0
20 -677 0
10 -677 0
-6 -10 -19 676 0
1019 -1540 0
-9 -13 -25 952 0
19 -676 0
1010 -1305 0
-5 -18 -27 675 0
27 -675 0
13 -873 0
18 -675 0
1046 -1246 0
-5 -18 -26 674 0
26 -674 0
13 -870 0
18 -674 0
24 -834 0
-5 -18 -25 673 0
1035 -1890 0
25 -673 0
-5 -18 -24 672 0
24 -672 0
-8 -13 -23 869 0
18 -672 0
1044 -1841 0
-5 -18 -23 671 0
1011 -1326 0
23 -671 0
18 -671 0
-1015 -1034 1434 0
-5 -18 -22 670 0
22 -670 0
-5 -18 -21 669 0
21 -669 0
-1024 -1049 1674 0
-5 -18 -20 668 0
18 -668 0
-5 -18 -19 667 0
1019 -1547 0
19 -667 0
13 -865 0
18 -667 0
1030 -1704 0
6 -730 0
5 -667 0
-5 -17 -27 666 0
1042 -1617 0
27 -666 0
17 -666 0
6 -731 0
5 -666 0
-5 -17 -26 665 0
26 -665 0
17 -665 0
1048 -1998 0
-1028 -1031 1750 0
6 -728 0
5 -665 0
25 -664 0
1014 -1424 0
-9 -18 -27 999 0
17 -664 0
1048 -1999 0
6 -729 0
5 -664 0
-9 -13 -21 948 0
-5 -17 -24 663 0
24 -663 0
1014 -1425 0
17 -663 0
1048 -1992 0
6 -726 0
5 -663 0
-1027 -1029 1726 0
-1021 -1040 1590 0
1011 -1333 0
-9 -18 -21 993 0
20 -956 0
23 -662 0
1033 -1383 0
-1001 -1029 1079 0
6 -727 0
5 -662 0
17 -825 0
22 -661 0
-5 -17 -21 660 0
21 -660 0
17 -660 0
1048 -1995 0
6 -725 0
5 -660 0
1028 -1603 0
-5 -17 -20 659 0
20 -659 0
17 -659 0
6 -722 0
5 -659 0
1027 -1746 0
-5 -17 -19 658 0
19 -658 0
6 -723 0
5 -658 0
-5 -16 -27 657 0
1050 -1200 0
1004 -1152 0
27 -657 0
11 -853 0
16 -657 0
1038 -1188 0
6 -720 0
5 -657 0
8 -862 0
7 -799 0
-5 -16 -26 656 0
-1021 -1039 1589 0
26 -656 0
-1021 -1045 1595 0
11 -854 0
16 -656 0
6 -721 0
5 -656 0
1035 -1892 0
25 -655 0
11 -851 0
16 -655 0
1029 -1629 0
6 -718 0
5 -655 0
24 -654 0
-5 -16 -23 653 0
1011 -1340 0
23 -653 0
16 -653 0
-1032 -1034 1831 0
6 -716 0
5 -653 0
22 -652 0
16 -652 0
6 -717 0
5 -652 0
-1008 -1041 1266 0
17 -904 0
21 -651 0
-1037 -1042 1914 0
-5 -16 -20 650 0
20 -650 0
6 -715 0
5 -650 0
-1003 -1039 1139 0
16 -975 0
19 -649 0
16 -649 0
-1006 -1035 1210 0
6 -712 0
5 -649 0
1047 -1991 0
-5 -15 -27 648 0
27 -648 0
6 -713 0
5 -648 0
10 -683 0
-5 -15 -26 647 0
26 -647 0
6 -710 0
5 -647 0
25 -646 0
6 -711 0
5 -646 0
-5 -15 -24 645 0
24 -645 0
15 -645 0
6 -708 0
5 -645 0
1037 -1412 0
-5 -15 -23 644 0
1011 -1347 0
23 -644 0
-1026 -1035 1709 0
15 -644 0
1022 -1615 0
18 -912 0
22 -643 0
15 -643 0
6 -706 0
5 -643 0
21 -642 0
15 -642 0
6 -707 0
5 -642 0
-5 -15 -20 641 0
20 -641 0
6 -704 0
5 -641 0
1047 -1447 0
-5 -15 -19 640 0
19 -640 0
6 -705 0
5 -640 0
-5 -14 -27 639 0
1004 -1166 0
27 -639 0
14 -639 0
26 -638 0
6 -703 0
5 -638 0
25 -637 0
14 -637 0
1038 -1088 0
6 -700 0
5 -637 0
1012 -1355 0
24 -636 0
14 -636 0
-1013 -1044 1394 0
6 -701 0
5 -636 0
-5 -14 -23 635 0
1011 -1330 0
20 -983 0
23 -635 0
14 -635 0
-5 -14 -22 634 0
1022 -1622 0
22 -634 0
14 -634 0
-5 -14 -21 633 0
21 -633 0
14 -633 0
-5 -14 -20 632 0
20 -632 0
-1034 -1036 1866 0
14 -632 0
-5 -14 -19 631 0
14 -631 0
1031 -1331 0
-5 -13 -27 630 0
1046 -1296 0
27 -630 0
6 -695 0
5 -630 0
-5 -13 -26 629 0
26 -629 0
13 -629 0
-5 -13 -25 628 0
25 -628 0
-1008 -1038 1263 0
13 -628 0
-6 -14 -20 713 0
-5 -13 -24 627 0
24 -627 0
13 -627 0
6 -690 0
5 -627 0
23 -626 0
13 -626 0
6 -691 0
5 -626 0
22 -625 0
1033 -1730 0
6 -688 0
5 -625 0
21 -624 0
1034 -1794 0
-1009 -1028 1278 0
6 -689 0
5 -624 0
1047 -1931 0
6 -724 0
5 -661 0
-5 -13 -20 623 0
20 -623 0
14 -713 0
-5 -13 -19 622 0
19 -622 0
-5 -12 -27 621 0
1042 -1542 0
27 -621 0
1008 -1258 0
8 -882 0
7 -819 0
12 -621 0
6 -684 0
5 -621 0
-5 -12 -26 620 0
-1037 -1038 1910 0
26 -620 0
1008 -1265 0
8 -881 0
7 -816 0
12 -620 0
6 -685 0
5 -620 0
25 -619 0
1008 -1264 0
8 -880 0
7 -817 0
12 -619 0
6 -682 0
5 -619 0
1015 -1437 0
24 -618 0
8 -871 0
7 -806 0
12 -618 0
6 -683 0
-5 -15 -22 643 0
5 -618 0
-5 -12 -23 617 0
8 -870 0
7 -807 0
12 -617 0
-9 -15 -26 971 0
6 -680 0
5 -617 0
22 -616 0
8 -869 0
7 -804 0
12 -616 0
-5 -12 -21 615 0
21 -615 0
8 -868 0
7 -805 0
12 -615 0
6 -678 0
5 -615 0
15 -802 0
20 -614 0
8 -875 0
7 -810 0
12 -614 0
1034 -1848 0
6 -679 0
5 -614 0
-5 -12 -19 613 0
8 -874 0
7 -811 0
12 -613 0
6 -676 0
5 -613 0
-5 -11 -27 612 0
1033 -1773 0
6 -677 0
5 -612 0
8 -917 0
-5 -11 -26 611 0
26 -611 0
1007 -1240 0
11 -611 0
25 -610 0
-5 -16 -25 655 0
11 -610 0
-1035 -1048 1893 0
5 -610 0
-5 -11 -24 609 0
24 -609 0
23 -608 0
-1013 -1049 1399 0
1007 -1245 0
11 -608 0
5 -608 0
1012 -1375 0
24 -744 0
-5 -11 -22 607 0
22 -607 0
1007 -1244 0
11 -607 0
5 -607 0
21 -606 0
1007 -1243 0
11 -606 0
5 -606 0
-5 -11 -20 605 0
-1002 -1046 1121 0
20 -605 0
5 -605 0
-1031 -1045 1824 0
5 -604 0
-5 -10 -27 603 0
5 -603 0
1047 -1597 0
-5 -10 -26 602 0
26 -602 0
5 -602 0
25 -601 0
-1031 -1041 1820 0
10 -601 0
-1028 -1038 1757 0
5 -601 0
-1018 -1031 1506 0
24 -600 0
10 -600 0
5 -600 0
1047 -1547 0
-8 -11 -20 848 0
10 -599 0
-8 -16 -27 900 0
5 -599 0
1022 -1611 0
-5 -10 -22 598 0
22 -598 0
1044 -1858 0
-9 -17 -22 985 0
10 -598 0
1021 -1600 0
-5 -10 -21 597 0
17 -826 0
21 -597 0
-1035 -1044 1889 0
1034 -1059 0
10 -597 0
-5 -10 -20 596 0
20 -596 0
1029 -1254 0
10 -596 0
1045 -1070 0
5 -596 0
1040 -1953 0
-5 -10 -19 595 0
10 -595 0
1038 -1638 0
5 -595 0
1033 -1058 0
-4 -18 -27 594 0
-1026 -1047 1721 0
1046 -1396 0
27 -594 0
13 -790 0
18 -594 0
1046 -1786 0
1031 -1206 0
4 -594 0
-1018 -1045 1520 0
26 -593 0
13 -791 0
18 -593 0
4 -593 0
-4 -18 -25 592 0
-1027 -1032 1729 0
25 -592 0
18 -592 0
1015 -1440 0
24 -591 0
18 -591 0
23 -590 0
-1007 -1034 1234 0
18 -590 0
-5 -15 -21 642 0
4 -590 0
1036 -1776 0
-4 -18 -22 589 0
18 -834 0
22 -589 0
18 -589 0
4 -589 0
-1027 -1036 1733 0
21 -588 0
-1004 -1047 1172 0
13 -784 0
18 -588 0
4 -588 0
-4 -18 -20 587 0
20 -587 0
-1030 -1038 1798 0
13 -785 0
18 -587 0
4 -587 0
1028 -1103 0
19 -586 0
18 -586 0
27 -585 0
17 -585 0
-1000 -1046 1071 0
4 -585 0
-4 -17 -26 584 0
26 -584 0
-1017 -1050 1500 0
17 -584 0
4 -584 0
-4 -17 -25 583 0
25 -583 0
-1025 -1047 1697 0
4 -583 0
1019 -1527 0
-4 -17 -24 582 0
24 -582 0
17 -582 0
1028 -1528 0
1049 -1474 0
4 -582 0
1050 -1525 0
-1013 -1046 1396 0
-1008 -1031 1256 0
-4 -17 -23 581 0
23 -581 0
17 -581 0
1047 -1647 0
-4 -17 -22 580 0
22 -580 0
17 -580 0
4 -580 0
1047 -1969 0
1034 -1359 0
6 -702 0
5 -639 0
-4 -17 -21 579 0
1022 -1614 0
-1009 -1039 1289 0
18 -911 0
21 -579 0
17 -579 0
-1015 -1040 1440 0
-8 -17 -19 901 0
-7 -16 -23 815 0
4 -579 0
1050 -1972 0
-4 -17 -20 578 0
-1038 -1049 1933 0
-1007 -1044 1244 0
20 -578 0
-1014 -1036 1411 0
17 -578 0
-4 -17 -19 577 0
19 -577 0
-6 -10 -27 684 0
17 -577 0
11 -774 0
16 -576 0
-4 -16 -26 575 0
26 -575 0
11 -771 0
16 -575 0
1026 -1201 0
-1002 -1035 1110 0
-4 -16 -25 574 0
25 -574 0
-9 -12 -27 945 0
11 -772 0
16 -574 0
-1009 -1046 1296 0
-5 -16 -21 651 0
24 -573 0
16 -573 0
19 -748 0
-4 -16 -23 572 0
-1035 -1042 1887 0
1012 -1356 0
23 -572 0
1021 -1582 0
-4 -16 -22 571 0
-5 -12 -22 616 0
22 -571 0
-4 -16 -21 570 0
1022 -1623 0
21 -570 0
1041 -1960 0
-6 -17 -21 741 0
-4 -16 -20 569 0
-1037 -1047 1919 0
20 -569 0
19 -568 0
27 -567 0
15 -567 0
1023 -1630 0
1027 -1377 0
-4 -15 -26 566 0
26 -566 0
15 -566 0
6 -714 0
5 -651 0
-4 -15 -25 565 0
25 -565 0
15 -565 0
19 -730 0
24 -564 0
15 -564 0
-4 -15 -23 563 0
23 -563 0
15 -563 0
-1019 -1040 1540 0
1035 -1110 0
-4 -15 -22 562 0
1014 -1416 0
22 -562 0
15 -562 0
-1011 -1046 1346 0
6 -740 0
-4 -15 -21 561 0
21 -561 0
15 -561 0
1030 -1680 0
-1006 -1034 1209 0
-4 -15 -20 560 0
16 -813 0
20 -560 0
15 -560 0
-4 -15 -19 559 0
19 -559 0
-4 -14 -27 558 0
27 -558 0
14 -558 0
-5 -11 -23 608 0
26 -557 0
14 -557 0
1029 -1104 0
-4 -14 -25 556 0
25 -556 0
14 -556 0
1018 -1518 0
-4 -14 -24 555 0
24 -555 0
14 -555 0
1015 -1436 0
-5 -16 -22 652 0
23 -554 0
14 -554 0
17 -741 0
22 -553 0
14 -553 0
-4 -14 -21 552 0
21 -552 0
14 -552 0
-4 -14 -20 551 0
20 -551 0
14 -551 0
-4 -14 -19 550 0
15 -803 0
19 -550 0
14 -550 0
-1038 -1040 1924 0
27 -549 0
13 -549 0
26 -548 0
13 -548 0
1018 -1507 0
-4 -13 -25 547 0
25 -547 0
13 -547 0
-4 -13 -24 546 0
24 -546 0
-1035 -1039 1884 0
13 -546 0
23 -545 0
-7 -10 -20 758 0
-4 -13 -22 544 0
1013 -1399 0
22 -544 0
17 -820 0
21 -543 0
-4 -16 -27 576 0
20 -542 0
19 -541 0
-9 -13 -19 946 0
-4 -12 -27 540 0
27 -540 0
12 -540 0
1029 -1129 0
-4 -12 -26 539 0
26 -539 0
1041 -1913 0
1027 -1352 0
-1011 -1031 1331 0
-6 -14 -26 719 0
12 -539 0
-4 -12 -25 538 0
25 -538 0
12 -538 0
-4 -12 -24 537 0
19 -757 0
24 -537 0
12 -537 0
-4 -12 -23 536 0
-1015 -1050 1450 0
23 -536 0
1027 -1427 0
12 -536 0
1022 -1604 0
-4 -12 -22 535 0
-1037 -1048 1920 0
1013 -1388 0
22 -535 0
12 -535 0
19 -595 0
-4 -12 -21 534 0
21 -534 0
12 -534 0
20 -722 0
-4 -12 -20 533 0
1050 -1550 0
12 -533 0
-1002 -1047 1122 0
26 -692 0
-4 -12 -19 532 0
19 -532 0
1046 -1806 0
-7 -13 -26 791 0
12 -532 0
8 -857 0
7 -792 0
11 -531 0
-1031 -1042 1821 0
-4 -11 -26 530 0
26 -530 0
1008 -1270 0
8 -846 0
7 -783 0
11 -530 0
1036 -1061 0
-4 -11 -25 529 0
1008 -1271 0
8 -847 0
7 -782 0
11 -529 0
-4 -11 -24 528 0
-1006 -1044 1219 0
24 -528 0
1007 -1229 0
8 -844 0
7 -781 0
11 -528 0
1017 -1495 0
-4 -11 -23 527 0
1015 -1441 0
23 -527 0
1007 -1228 0
8 -845 0
7 -780 0
11 -527 0
-4 -11 -22 526 0
1013 -1381 0
-1012 -1042 1367 0
22 -526 0
1007 -1227 0
8 -850 0
7 -787 0
11 -526 0
1027 -1737 0
-4 -11 -21 525 0
-1019 -1029 1529 0
-1007 -1046 1246 0
18 -833 0
21 -525 0
1007 -1226 0
8 -851 0
7 -786 0
11 -525 0
1003 -1130 0
-4 -11 -20 524 0
20 -524 0
1007 -1233 0
8 -848 0
7 -785 0
11 -524 0
19 -523 0
1007 -1232 0
8 -849 0
7 -784 0
11 -523 0
-4 -10 -27 522 0
27 -522 0
26 -521 0
10 -521 0
-4 -10 -25 520 0
25 -520 0
1037 -1112 0
10 -520 0
19 -766 0
-4 -10 -24 519 0
24 -519 0
1033 -1358 0
10 -519 0
23 -599 0
-4 -10 -23 518 0
23 -518 0
10 -518 0
25 -529 0
-4 -10 -22 517 0
22 -517 0
-4 -15 -24 564 0
10 -517 0
-4 -10 -21 516 0
21 -516 0
1034 -1434 0
10 -516 0
-4 -13 -20 542 0
-4 -10 -20 515 0
20 -515 0
10 -515 0
-1013 -1029 1379 0
-4 -10 -19 514 0
19 -514 0
10 -514 0
-1032 -1046 1843 0
-3 -18 -27 513 0
9 -956 0
13 -711 0
18 -513 0
4 -578 0
3 -513 0
-3 -18 -26 512 0
-5 -16 -24 654 0
-4 -13 -21 543 0
26 -512 0
4 -575 0
3 -512 0
1032 -1706 0
-1013 -1026 1376 0
-3 -18 -25 511 0
25 -511 0
1031 -1156 0
4 -576 0
3 -511 0
-3 -18 -24 510 0
24 -510 0
4 -573 0
3 -510 0
-3 -18 -23 509 0
23 -509 0
9 -968 0
18 -509 0
4 -574 0
3 -509 0
1041 -1316 0
5 -597 0
-3 -18 -22 508 0
22 -508 0
-1039 -1050 1945 0
-9 -16 -26 980 0
4 -571 0
3 -508 0
1037 -1834 0
-3 -18 -21 507 0
21 -507 0
-1025 -1027 1677 0
9 -966 0
13 -705 0
18 -507 0
-3 -18 -20 506 0
9 -963 0
18 -506 0
4 -569 0
3 -506 0
-1004 -1030 1155 0
-3 -18 -19 505 0
19 -505 0
4 -570 0
3 -505 0
15 -807 0
-3 -17 -27 504 0
27 -504 0
4 -567 0
3 -504 0
-1003 -1035 1135 0
-3 -17 -26 503 0
26 -503 0
4 -568 0
3 -503 0
-3 -17 -25 502 0
25 -502 0
17 -502 0
4 -565 0
3 -502 0
1019 -1545 0
24 -501 0
17 -501 0
4 -566 0
-4 -14 -23 554 0
3 -501 0
20 -794 0
23 -500 0
17 -500 0
-1006 -1050 1225 0
4 -563 0
3 -500 0
19 -739 0
-3 -17 -22 499 0
22 -499 0
17 -499 0
4 -564 0
3 -499 0
1041 -1266 0
5 -611 0
-3 -17 -21 498 0
1014 -1417 0
21 -498 0
17 -498 0
4 -561 0
3 -498 0
23 -959 0
-3 -17 -20 497 0
-6 -14 -19 712 0
20 -497 0
-1022 -1044 1619 0
17 -497 0
4 -562 0
3 -497 0
1035 -1775 0
-3 -17 -19 496 0
16 -812 0
19 -496 0
17 -496 0
-3 -16 -27 495 0
27 -495 0
11 -691 0
16 -495 0
4 -560 0
3 -495 0
-1029 -1033 1773 0
-7 -11 -22 769 0
-3 -16 -26 494 0
26 -494 0
-1008 -1043 1268 0
11 -692 0
16 -494 0
4 -557 0
3 -494 0
-3 -16 -25 493 0
25 -493 0
16 -493 0
4 -558 0
3 -493 0
-1029 -1031 1771 0
-3 -16 -24 492 0
1019 -1538 0
24 -492 0
16 -492 0
4 -555 0
3 -492 0
1027 -1102 0
23 -491 0
16 -491 0
4 -556 0
3 -491 0
1044 -1804 0
-3 -16 -22 490 0
22 -490 0
16 -490 0
-1030 -1048 1808 0
4 -553 0
3 -490 0
-3 -16 -21 489 0
-8 -12 -25 862 0
17 -742 0
21 -489 0
-1012 -1031 1356 0
4 -554 0
3 -489 0
1042 -1802 0
1000 -1069 0
-3 -16 -20 488 0
-1004 -1048 1173 0
11 -929 0
20 -488 0
4 -551 0
3 -488 0
1046 -1221 0
23 -806 0
-3 -16 -19 487 0
19 -487 0
16 -487 0
4 -552 0
3 -487 0
27 -486 0
-8 -11 -25 853 0
4 -549 0
3 -486 0
1007 -1250 0
12 -694 0
-3 -15 -26 485 0
26 -485 0
15 -485 0
-1045 -1049 1989 0
4 -550 0
3 -485 0
-3 -15 -25 484 0
25 -484 0
15 -484 0
4 -547 0
3 -484 0
26 -908 0
-3 -15 -24 483 0
1027 -1077 0
24 -483 0
-6 -11 -27 693 0
-5 -11 -21 606 0
15 -483 0
4 -548 0
3 -483 0
-3 -15 -23 482 0
23 -482 0
-1022 -1030 1605 0
15 -482 0
4 -545 0
3 -482 0
-3 -15 -22 481 0
18 -750 0
22 -481 0
15 -481 0
-1043 -1046 1975 0
4 -546 0
3 -481 0
-3 -15 -21 480 0
1013 -1398 0
21 -480 0
15 -480 0
-1031 -1034 1813 0
4 -543 0
3 -480 0
-3 -15 -20 479 0
16 -732 0
20 -479 0
4 -544 0
3 -479 0
-3 -15 -19 478 0
19 -478 0
4 -541 0
3 -478 0
27 -477 0
14 -477 0
4 -542 0
3 -477 0
1037 -1797 0
27 -684 0
-3 -14 -26 476 0
26 -476 0
14 -476 0
4 -539 0
3 -476 0
-3 -14 -25 475 0
25 -475 0
14 -475 0
1036 -1866 0
1044 -1344 0
26 -755 0
-3 -14 -24 474 0
4 -537 0
3 -474 0
-3 -14 -23 473 0
20 -821 0
23 -473 0
14 -473 0
-8 -12 -19 856 0
-5 -17 -23 662 0
4 -538 0
3 -473 0
-3 -14 -22 472 0
13 -947 0
-8 -18 -26 917 0
22 -472 0
14 -472 0
4 -535 0
3 -472 0
-3 -14 -21 471 0
1013 -1389 0
21 -471 0
-1024 -1030 1655 0
-1003 -1045 1145 0
-6 -12 -21 696 0
14 -471 0
-1027 -1050 1747 0
-3 -14 -20 470 0
-1021 -1032 1582 0
20 -470 0
14 -470 0
4 -533 0
3 -470 0
14 -469 0
4 -534 0
3 -469 0
-3 -13 -27 468 0
27 -468 0
13 -468 0
-5 -10 -23 599 0
4 -531 0
3 -468 0
-1014 -1047 1422 0
-3 -13 -26 467 0
26 -467 0
13 -467 0
-5 -11 -25 610 0
4 -532 0
3 -467 0
-3 -13 -25 466 0
-1008 -1039 1264 0
25 -466 0
13 -466 0
-3 -13 -24 465 0
15 -890 0
24 -465 0
4 -530 0
3 -465 0
23 -464 0
-1011 -1039 1339 0
4 -527 0
3 -464 0
1029 -1778 0
-3 -13 -22 463 0
22 -463 0
4 -528 0
3 -463 0
-3 -13 -21 462 0
1013 -1380 0
21 -462 0
4 -525 0
3 -462 0
1036 -1896 0
1047 -1072 0
-3 -13 -20 461 0
20 -461 0
-1024 -1033 1658 0
13 -461 0
4 -526 0
3 -461 0
-3 -13 -19 460 0
15 -721 0
19 -460 0
13 -460 0
4 -523 0
3 -460 0
-3 -12 -27 459 0
-1019 -1028 1528 0
27 -459 0
1041 -1961 0
1046 -1765 0
1023 -1629 0
-6 -16 -24 735 0
12 -459 0
4 -524 0
3 -459 0
1021 -1588 0
-3 -12 -26 458 0
26 -458 0
4 -521 0
3 -458 0
15 -965 0
19 -712 0
-3 -12 -25 457 0
12 -457 0
-3 -12 -24 456 0
24 -456 0
12 -456 0
25 -718 0
-3 -12 -23 455 0
23 -455 0
4 -520 0
3 -455 0
1035 -1889 0
-1032 -1048 1845 0
-3 -12 -22 454 0
22 -454 0
1028 -1378 0
12 -454 0
4 -517 0
3 -454 0
4 -572 0
3 -507 0
-3 -12 -21 453 0
21 -453 0
12 -453 0
4 -518 0
3 -453 0
15 -648 0
20 -452 0
1045 -1695 0
12 -452 0
-3 -12 -19 451 0
19 -451 0
12 -451 0
4 -516 0
3 -451 0
-1012 -1045 1370 0
27 -450 0
1028 -1453 0
11 -450 0
3 -450 0
-3 -11 -26 449 0
17 -908 0
26 -449 0
1023 -1650 0
1049 -1524 0
11 -449 0
-1018 -1036 1511 0
4 -514 0
3 -449 0
21 -741 0
-3 -11 -25 448 0
-1042 -1050 1972 0
25 -448 0
1023 -1641 0
11 -448 0
3 -448 0
-3 -11 -24 447 0
-1005 -1041 1191 0
1028 -1178 0
24 -447 0
1023 -1640 0
11 -447 0
3 -447 0
1037 -1612 0
-3 -11 -23 446 0
1027 -1177 0
23 -446 0
1046 -1843 0
1023 -1639 0
11 -446 0
3 -446 0
-3 -11 -22 445 0
22 -445 0
1023 -1638 0
11 -445 0
3 -445 0
-3 -11 -21 444 0
21 -444 0
1023 -1645 0
11 -444 0
3 -444 0
22 -733 0
-3 -11 -20 443 0
15 -641 0
20 -443 0
1023 -1644 0
1031 -1106 0
-8 -17 -22 904 0
11 -443 0
-3 -12 -20 452 0
3 -443 0
1050 -1922 0
1024 -1658 0
11 -442 0
3 -442 0
27 -441 0
6 -694 0
5 -631 0
10 -441 0
-1010 -1033 1308 0
3 -441 0
1044 -1903 0
1043 -1840 0
1029 -1179 0
-3 -10 -26 440 0
-7 -10 -25 763 0
26 -440 0
-6 -17 -20 740 0
6 -693 0
5 -628 0
10 -440 0
1049 -1894 0
-3 -10 -25 439 0
25 -439 0
-1000 -1043 1068 0
6 -692 0
5 -629 0
10 -439 0
3 -439 0
-1012 -1030 1355 0
-3 -10 -24 438 0
19 -604 0
24 -438 0
6 -699 0
5 -634 0
10 -438 0
3 -438 0
-3 -10 -23 437 0
1019 -1546 0
23 -437 0
-1043 -1050 1979 0
6 -698 0
5 -635 0
10 -437 0
3 -437 0
10 -838 0
-3 -10 -22 436 0
22 -436 0
6 -697 0
5 -632 0
10 -436 0
3 -436 0
21 -435 0
1041 -1216 0
6 -696 0
5 -633 0
10 -435 0
3 -435 0
1008 -1268 0
7 -773 0
-3 -10 -20 434 0
12 -940 0
20 -434 0
6 -687 0
5 -622 0
10 -434 0
3 -434 0
1039 -1943 0
-3 -10 -19 433 0
19 -433 0
1038 -1538 0
6 -686 0
5 -623 0
10 -433 0
3 -433 0
-1028 -1029 1748 0
1028 -1428 0
-5 -13 -22 625 0
-4 -15 -27 567 0
-2 -18 -27 432 0
1012 -1363 0
27 -432 0
18 -432 0
2 -432 0
-2 -18 -26 431 0
26 -431 0
18 -431 0
2 -431 0
-2 -18 -25 430 0
18 -999 0
-9 -13 -27 954 0
25 -430 0
18 -430 0
-2 -18 -24 429 0
24 -429 0
18 -429 0
2 -429 0
-2 -18 -23 428 0
13 -624 0
18 -428 0
1048 -1953 0
2 -428 0
-2 -18 -22 427 0
13 -868 0
22 -427 0
2 -427 0
3 -440 0
-2 -18 -21 426 0
21 -426 0
13 -622 0
18 -426 0
-2 -18 -20 425 0
20 -425 0
-9 -12 -22 940 0
13 -623 0
18 -425 0
-1032 -1033 1830 0
2 -425 0
11 -930 0
19 -424 0
18 -424 0
-1044 -1047 1982 0
1047 -1892 0
1037 -1062 0
2 -424 0
1012 -1372 0
-1008 -1047 1272 0
27 -423 0
9 -929 0
17 -423 0
1033 -1308 0
2 -423 0
-1007 -1043 1243 0
-2 -17 -26 422 0
26 -422 0
1009 -1284 0
9 -928 0
17 -422 0
-6 -15 -27 729 0
2 -422 0
-2 -17 -25 421 0
25 -421 0
1009 -1283 0
9 -927 0
17 -421 0
1030 -1630 0
2 -421 0
-7 -14 -25 799 0
4 -559 0
3 -496 0
-2 -17 -24 420 0
24 -420 0
1034 -1384 0
-1001 -1030 1080 0
2 -420 0
1018 -1517 0
-2 -17 -23 419 0
23 -419 0
2 -419 0
22 -418 0
9 -924 0
17 -418 0
2 -418 0
-3 -15 -27 486 0
-2 -17 -21 417 0
18 -749 0
21 -417 0
9 -923 0
17 -417 0
2 -417 0
-2 -17 -20 416 0
12 -938 0
20 -416 0
9 -938 0
17 -416 0
1015 -1442 0
-2 -17 -19 415 0
16 -733 0
19 -415 0
9 -937 0
-8 -13 -24 870 0
17 -415 0
16 -815 0
-2 -16 -27 414 0
1012 -1361 0
27 -414 0
1007 -1241 0
11 -612 0
16 -414 0
-2 -16 -26 413 0
-5 -14 -24 636 0
26 -413 0
1007 -1246 0
-8 -13 -21 867 0
16 -413 0
-2 -16 -25 412 0
25 -412 0
1007 -1247 0
16 -412 0
-2 -16 -24 411 0
15 -884 0
19 -631 0
24 -411 0
1007 -1236 0
16 -411 0
1038 -1932 0
1041 -1616 0
1003 -1138 0
-2 -16 -23 410 0
1019 -1543 0
23 -410 0
1007 -1237 0
16 -410 0
-2 -16 -22 409 0
22 -409 0
13 -946 0
21 -408 0
-1020 -1047 1572 0
8 -914 0
16 -408 0
-2 -16 -20 407 0
11 -850 0
20 -407 0
-1019 -1049 1549 0
-2 -16 -19 406 0
-1003 -1043 1143 0
19 -406 0
-2 -15 -27 405 0
1011 -1337 0
27 -405 0
15 -405 0
-2 -15 -26 404 0
26 -404 0
15 -404 0
-2 -15 -25 403 0
15 -403 0
-2 -15 -24 402 0
16 -892 0
24 -402 0
15 -402 0
-2 -15 -23 401 0
15 -891 0
23 -401 0
15 -401 0
-2 -15 -22 400 0
15 -400 0
1041 -1091 0
-2 -15 -21 399 0
15 -399 0
-2 -15 -20 398 0
11 -855 0
16 -651 0
20 -398 0
-1013 -1030 1380 0
15 -398 0
1040 -1952 0
-1001 -1043 1093 0
-2 -15 -19 397 0
19 -397 0
15 -397 0
-1033 -1040 1854 0
-1022 -1035 1610 0
1011 -1344 0
20 -965 0
27 -396 0
13 -871 0
18 -673 0
-2 -14 -26 395 0
-1010 -1036 1311 0
26 -395 0
1044 -1928 0
14 -395 0
-2 -14 -25 394 0
25 -394 0
14 -394 0
19 -613 0
-2 -14 -24 393 0
-1033 -1035 1849 0
-1008 -1032 1257 0
16 -899 0
24 -393 0
14 -393 0
23 -392 0
14 -392 0
-2 -14 -22 391 0
14 -391 0
-9 -13 -24 951 0
-6 -11 -21 687 0
21 -390 0
14 -390 0
-1014 -1038 1413 0
20 -389 0
9 -967 0
18 -510 0
-2 -14 -19 388 0
19 -388 0
1044 -1949 0
1029 -1229 0
14 -388 0
-2 -13 -27 387 0
20 -974 0
27 -387 0
13 -387 0
-2 -13 -26 386 0
1022 -1619 0
26 -386 0
-1008 -1037 1262 0
13 -386 0
-2 -13 -25 385 0
17 -907 0
25 -385 0
-1021 -1034 1584 0
13 -385 0
9 -965 0
13 -704 0
18 -508 0
-2 -13 -24 384 0
24 -384 0
13 -384 0
-2 -13 -23 383 0
-1024 -1028 1653 0
-9 -18 -25 997 0
23 -383 0
13 -382 0
8 -912 0
16 -406 0
-2 -13 -21 381 0
17 -658 0
21 -381 0
-1027 -1039 1736 0
-6 -18 -19 748 0
13 -381 0
-2 -13 -20 380 0
-1027 -1038 1735 0
20 -380 0
13 -380 0
15 -640 0
19 -379 0
13 -379 0
-5 -13 -23 626 0
-2 -12 -27 378 0
-1020 -1046 1571 0
27 -378 0
-9 -16 -23 977 0
12 -378 0
18 -915 0
26 -377 0
1045 -1990 0
1036 -1211 0
12 -377 0
1048 -1673 0
-2 -12 -25 376 0
-1004 -1050 1175 0
-1003 -1049 1149 0
25 -376 0
10 -602 0
-2 -12 -24 375 0
24 -375 0
-2 -12 -23 374 0
20 -668 0
23 -374 0
1050 -1895 0
12 -374 0
-3 -14 -19 469 0
-2 -12 -22 373 0
22 -373 0
1035 -1160 0
12 -373 0
1009 -1294 0
-2 -12 -21 372 0
21 -372 0
12 -372 0
-2 -12 -20 371 0
20 -371 0
1032 -1482 0
12 -371 0
-2 -12 -19 370 0
-9 -18 -19 991 0
12 -939 0
19 -370 0
12 -370 0
-2 -11 -27 369 0
27 -369 0
1027 -1725 0
11 -369 0
1042 -1417 0
-2 -11 -26 368 0
26 -368 0
11 -368 0
-2 -11 -25 367 0
25 -367 0
-2 -11 -24 366 0
-8 -12 -24 861 0
15 -809 0
24 -366 0
1032 -1532 0
11 -366 0
23 -365 0
11 -365 0
-2 -11 -22 364 0
1005 -1181 0
22 -364 0
11 -364 0
23 -617 0
-2 -11 -21 363 0
13 -869 0
21 -363 0
11 -363 0
1016 -1474 0
-2 -11 -20 362 0
20 -362 0
1049 -1809 0
1027 -1734 0
1035 -1260 0
11 -362 0
-2 -11 -19 361 0
19 -361 0
1027 -1733 0
11 -361 0
20 -929 0
27 -360 0
1034 -1774 0
10 -360 0
26 -359 0
1042 -1267 0
10 -359 0
17 -583 0
-2 -10 -25 358 0
25 -358 0
10 -358 0
24 -357 0
1048 -1788 0
10 -357 0
23 -356 0
-2 -10 -22 355 0
1005 -1186 0
14 -877 0
22 -355 0
-2 -10 -21 354 0
21 -354 0
1047 -1744 0
10 -354 0
1040 -1315 0
-2 -10 -20 353 0
12 -859 0
20 -353 0
-2 -10 -19 352 0
12 -937 0
19 -352 0
10 -352 0
-1 -18 -27 351 0
20 -938 0
27 -351 0
13 -541 0
18 -351 0
-1 -18 -26 350 0
-1015 -1048 1448 0
17 -823 0
26 -350 0
18 -350 0
2 -413 0
1 -350 0
26 -782 0
-1 -18 -25 349 0
25 -349 0
2 -414 0
1 -349 0
1035 -1888 0
-1 -18 -24 348 0
-1000 -1030 1055 0
24 -348 0
13 -544 0
18 -348 0
-1 -18 -23 347 0
15 -885 0
20 -695 0
23 -347 0
13 -545 0
18 -347 0
-9 -10 -21 921 0
-1 -18 -22 346 0
1005 -1195 0
22 -346 0
13 -542 0
18 -346 0
9 -964 0
13 -703 0
18 -505 0
-1 -18 -21 345 0
21 -345 0
-1 -18 -20 344 0
-2 -10 -26 359 0
20 -344 0
-1027 -1044 1741 0
18 -344 0
1016 -1452 0
-1 -18 -19 343 0
-1007 -1038 1238 0
18 -343 0
2 -408 0
1 -343 0
21 -399 0
-1 -17 -27 342 0
27 -342 0
17 -342 0
-1 -17 -26 341 0
18 -831 0
26 -341 0
-1027 -1033 1730 0
-1 -17 -25 340 0
25 -340 0
17 -340 0
2 -403 0
1 -340 0
-1027 -1034 1731 0
-1 -17 -24 339 0
24 -339 0
-1030 -1035 1795 0
17 -339 0
2 -404 0
1 -339 0
1021 -1576 0
-1 -17 -23 338 0
16 -893 0
23 -338 0
-1003 -1050 1150 0
17 -338 0
1047 -1787 0
2 -401 0
1 -338 0
17 -827 0
-1 -17 -22 337 0
-2 -14 -20 389 0
22 -337 0
17 -337 0
-4 -18 -23 590 0
2 -402 0
1 -337 0
-1 -17 -21 336 0
21 -336 0
1029 -1529 0
2 -399 0
1 -336 0
-1 -17 -20 335 0
-1010 -1027 1302 0
12 -857 0
20 -335 0
10 -922 0
17 -335 0
2 -400 0
1 -335 0
-1 -17 -19 334 0
16 -650 0
19 -334 0
10 -919 0
17 -334 0
2 -397 0
1 -334 0
27 -333 0
-1007 -1036 1236 0
1007 -1230 0
8 -855 0
7 -790 0
16 -333 0
2 -398 0
1 -333 0
1028 -1702 0
-1 -16 -26 332 0
26 -332 0
1007 -1231 0
8 -854 0
7 -791 0
16 -332 0
2 -395 0
1 -332 0
-1 -16 -25 331 0
25 -331 0
8 -853 0
7 -788 0
16 -331 0
2 -396 0
1 -331 0
-1 -16 -24 330 0
24 -330 0
8 -852 0
7 -789 0
16 -330 0
16 -898 0
23 -329 0
1008 -1275 0
7 -770 0
16 -329 0
1034 -1334 0
2 -394 0
1 -329 0
4 -519 0
3 -456 0
-1 -16 -22 328 0
-1023 -1032 1632 0
1005 -1193 0
22 -328 0
1008 -1274 0
7 -771 0
16 -328 0
2 -391 0
1 -328 0
1024 -1656 0
1028 -1403 0
-1 -16 -21 327 0
21 -327 0
7 -768 0
16 -327 0
-1027 -1028 1725 0
2 -392 0
1 -327 0
-1 -16 -20 326 0
11 -767 0
20 -326 0
7 -769 0
16 -326 0
1048 -1862 0
2 -389 0
1 -326 0
-1 -16 -19 325 0
19 -325 0
1008 -1255 0
7 -766 0
-4 -13 -27 549 0
16 -325 0
2 -390 0
1 -325 0
-1 -15 -27 324 0
1012 -1351 0
27 -324 0
2 -387 0
1 -324 0
26 -323 0
-1026 -1032 1706 0
8 -892 0
7 -829 0
15 -323 0
2 -388 0
1 -323 0
8 -895 0
7 -830 0
-4 -13 -26 548 0
15 -324 0
-1 -15 -25 322 0
1022 -1618 0
25 -322 0
8 -893 0
7 -828 0
15 -322 0
1048 -1962 0
2 -385 0
1 -322 0
24 -321 0
8 -906 0
-3 -10 -21 435 0
15 -321 0
-1036 -1043 1902 0
2 -386 0
1 -321 0
1010 -1317 0
-1 -15 -23 320 0
23 -320 0
8 -907 0
15 -320 0
2 -383 0
1 -320 0
13 -792 0
22 -319 0
-1027 -1042 1739 0
8 -904 0
15 -319 0
1034 -1284 0
2 -384 0
1 -319 0
-1 -15 -21 318 0
-1020 -1041 1566 0
21 -318 0
8 -905 0
15 -318 0
1029 -1479 0
2 -381 0
1 -318 0
1002 -1110 0
-1 -15 -20 317 0
16 -570 0
20 -317 0
8 -902 0
15 -317 0
2 -382 0
1 -317 0
-1 -15 -19 316 0
2 -379 0
1 -316 0
1012 -1360 0
27 -315 0
14 -315 0
-2 -17 -27 423 0
2 -380 0
1 -315 0
11 -609 0
-1 -14 -26 314 0
26 -314 0
14 -314 0
1033 -1158 0
2 -377 0
1 -314 0
18 -916 0
25 -313 0
14 -313 0
1048 -1907 0
2 -378 0
1 -313 0
-6 -18 -20 749 0
22 -400 0
-1 -14 -24 312 0
24 -312 0
1048 -1988 0
14 -312 0
2 -375 0
1 -312 0
-1 -14 -23 311 0
23 -311 0
14 -311 0
1047 -1844 0
2 -376 0
1 -311 0
-1 -14 -22 310 0
9 -998 0
14 -800 0
22 -310 0
1034 -1409 0
14 -310 0
2 -373 0
1 -310 0
16 -572 0
-1 -14 -21 309 0
21 -309 0
-1016 -1027 1452 0
14 -309 0
1034 -1234 0
2 -374 0
1 -309 0
1010 -1314 0
-1 -14 -20 308 0
1016 -1457 0
16 -569 0
20 -308 0
14 -308 0
1025 -1698 0
1029 -1429 0
2 -371 0
1 -308 0
-1 -14 -19 307 0
19 -307 0
1025 -1697 0
-8 -17 -25 907 0
2 -372 0
1 -307 0
1033 -1433 0
-1 -13 -27 306 0
27 -306 0
1044 -1294 0
-7 -18 -21 831 0
-1 -13 -26 305 0
1014 -1420 0
26 -305 0
2 -370 0
1 -305 0
-1 -13 -25 304 0
25 -304 0
1030 -1810 0
-9 -10 -24 924 0
-1 -13 -24 303 0
24 -303 0
13 -303 0
2 -369 0
1 -306 0
-1 -13 -23 302 0
15 -808 0
-2 -14 -23 392 0
23 -302 0
13 -302 0
1025 -1700 0
2 -365 0
1 -302 0
-1013 -1043 1393 0
-1 -13 -22 301 0
9 -987 0
22 -301 0
13 -301 0
1028 -1761 0
-1 -13 -21 300 0
1005 -1180 0
21 -300 0
-1016 -1041 1466 0
13 -300 0
2 -426 0
-1 -13 -20 299 0
1016 -1464 0
-3 -11 -27 450 0
20 -299 0
13 -299 0
-1 -13 -19 298 0
15 -559 0
19 -298 0
-1 -12 -27 297 0
-1035 -1041 1886 0
1016 -1473 0
27 -297 0
12 -297 0
-1 -12 -26 296 0
1014 -1411 0
-5 -17 -25 664 0
26 -296 0
-1024 -1050 1675 0
12 -296 0
2 -359 0
1 -296 0
1029 -1780 0
-1 -12 -25 295 0
-2 -14 -21 390 0
25 -295 0
1039 -1389 0
12 -295 0
-1044 -1046 1981 0
1048 -1893 0
1029 -1504 0
-1014 -1049 1424 0
1038 -1063 0
2 -360 0
1 -295 0
16 -816 0
24 -294 0
-1043 -1047 1976 0
12 -294 0
-4 -18 -21 588 0
-1 -12 -23 293 0
23 -293 0
12 -293 0
-1035 -1049 1894 0
1035 -1709 0
1039 -1464 0
-1 -12 -22 292 0
22 -292 0
-1015 -1045 1445 0
12 -292 0
2 -355 0
1 -292 0
-1036 -1038 1897 0
1005 -1187 0
14 -876 0
21 -291 0
12 -291 0
-1031 -1037 1816 0
2 -356 0
1 -291 0
1048 -1808 0
10 -353 0
-1 -12 -20 290 0
15 -486 0
20 -290 0
1035 -1635 0
12 -290 0
1034 -1309 0
2 -353 0
1 -290 0
1029 -1554 0
1038 -1113 0
6 -709 0
5 -644 0
-1 -16 -27 333 0
-1 -12 -19 289 0
-1002 -1042 1117 0
12 -860 0
19 -289 0
12 -289 0
-8 -11 -24 852 0
2 -354 0
1 -289 0
-8 -13 -19 865 0
-1 -11 -27 288 0
27 -288 0
11 -288 0
1 -288 0
13 -543 0
18 -345 0
-1 -11 -26 287 0
17 -746 0
26 -287 0
11 -287 0
2 -352 0
1 -287 0
1050 -1275 0
1000 -1056 0
-1 -11 -25 286 0
17 -824 0
-5 -14 -25 637 0
25 -286 0
11 -286 0
1047 -1807 0
1033 -1258 0
1 -286 0
1037 -1921 0
-1 -11 -24 285 0
24 -285 0
11 -285 0
1 -285 0
-1 -11 -23 284 0
23 -284 0
1036 -1261 0
11 -284 0
1 -284 0
-1 -11 -22 283 0
-8 -14 -21 876 0
17 -503 0
22 -283 0
1049 -1746 0
11 -283 0
1 -283 0
1030 -1795 0
1034 -1534 0
-1 -11 -21 282 0
1005 -1194 0
21 -282 0
11 -282 0
1025 -1680 0
1 -282 0
-1 -11 -20 281 0
15 -479 0
20 -281 0
-8 -11 -22 850 0
-2 -12 -26 377 0
11 -281 0
1025 -1679 0
1 -281 0
27 -801 0
-1 -11 -19 280 0
-1018 -1039 1514 0
19 -280 0
11 -280 0
1034 -1259 0
1 -280 0
27 -279 0
10 -279 0
1 -279 0
-1 -10 -26 278 0
1013 -1384 0
26 -278 0
1042 -1242 0
10 -278 0
1025 -1676 0
1 -278 0
-1 -10 -25 277 0
18 -832 0
25 -277 0
10 -277 0
1029 -1454 0
1 -277 0
1001 -1087 0
-1 -10 -24 276 0
19 -442 0
24 -276 0
10 -276 0
1033 -1208 0
1 -276 0
-1 -10 -23 275 0
23 -275 0
1037 -1437 0
-1 -10 -27 279 0
10 -275 0
-4 -18 -24 591 0
1 -275 0
1047 -1952 0
6 -719 0
5 -654 0
-1 -10 -22 274 0
9 -970 0
18 -511 0
22 -274 0
10 -274 0
-1002 -1036 1111 0
1 -274 0
21 -273 0
10 -273 0
1 -273 0
-1 -10 -20 272 0
1015 -1428 0
20 -272 0
1048 -1827 0
10 -272 0
-1 -10 -19 271 0
12 -858 0
19 -271 0
-1019 -1046 1546 0
10 -271 0
1 -271 0
-18 -27 270 0
20 -839 0
-4 -13 -23 545 0
27 -270 0
18 -270 0
1012 -1373 0
-1003 -1036 1136 0
-18 -26 269 0
1013 -1377 0
26 -269 0
18 -269 0
1007 -1249 0
11 -604 0
-18 -25 268 0
18 -837 0
25 -268 0
13 -464 0
18 -268 0
14 -474 0
-18 -24 267 0
-6 -12 -24 699 0
13 -465 0
18 -267 0
22 -382 0
-18 -23 266 0
23 -266 0
13 -462 0
-1 -14 -27 315 0
18 -266 0
-1003 -1047 1147 0
-18 -22 265 0
9 -959 0
13 -706 0
22 -265 0
13 -463 0
18 -265 0
8 -915 0
16 -409 0
-18 -21 264 0
1005 -1192 0
-2 -10 -24 357 0
21 -264 0
18 -264 0
-18 -20 263 0
1016 -1468 0
20 -263 0
18 -263 0
-18 -19 262 0
11 -768 0
19 -262 0
18 -262 0
-17 -27 261 0
20 -848 0
27 -261 0
17 -261 0
1008 -1269 0
7 -772 0
-1 -14 -25 313 0
-17 -26 260 0
26 -260 0
17 -260 0
24 -267 0
-17 -25 259 0
25 -259 0
17 -259 0
-17 -24 258 0
24 -258 0
17 -258 0
-1019 -1042 1542 0
1038 -1163 0
-8 -17 -24 906 0
10 -522 0
-17 -23 257 0
23 -257 0
17 -257 0
1028 -1763 0
1031 -1431 0
-17 -22 256 0
9 -984 0
22 -256 0
10 -841 0
17 -256 0
-17 -21 255 0
21 -255 0
10 -842 0
17 -255 0
18 -829 0
-4 -10 -26 521 0
-17 -20 254 0
10 -839 0
-7 -14 -22 796 0
17 -254 0
1013 -1383 0
-17 -19 253 0
16 -571 0
19 -253 0
10 -840 0
17 -253 0
1020 -1571 0
-16 -27 252 0
-1007 -1040 1240 0
-5 -12 -24 618 0
27 -252 0
1023 -1643 0
16 -252 0
-1026 -1037 1711 0
9 -952 0
-1 -15 -24 321 0
-16 -26 251 0
1013 -1391 0
26 -251 0
-1038 -1050 1934 0
1023 -1632 0
16 -251 0
-1026 -1038 1712 0
1010 -1323 0
-16 -25 250 0
1026 -1301 0
-5 -16 -19 649 0
25 -250 0
1024 -1657 0
-16 -24 249 0
15 -722 0
19 -469 0
24 -249 0
1024 -1655 0
16 -249 0
-1009 -1030 1280 0
11 -367 0
-16 -23 248 0
-5 -12 -20 614 0
23 -248 0
1024 -1654 0
16 -248 0
-16 -22 247 0
1009 -1297 0
9 -933 0
22 -247 0
1024 -1661 0
16 -247 0
-1041 -1047 1961 0
9 -997 0
14 -801 0
21 -246 0
1024 -1660 0
16 -246 0
1019 -1544 0
24 -474 0
-16 -20 245 0
-8 -13 -26 872 0
11 -688 0
20 -245 0
1027 -1277 0
16 -245 0
15 -883 0
-16 -19 244 0
1016 -1456 0
16 -568 0
19 -244 0
1031 -1081 0
16 -244 0
1023 -1633 0
1049 -1499 0
16 -250 0
-15 -27 243 0
-1015 -1029 1429 0
27 -243 0
15 -243 0
1050 -1500 0
12 -455 0
-15 -26 242 0
26 -242 0
1041 -1936 0
15 -242 0
-15 -25 241 0
1014 -1421 0
25 -241 0
1023 -1647 0
7 -763 0
15 -241 0
-2 -13 -19 379 0
-15 -24 240 0
11 -936 0
16 -730 0
24 -240 0
1023 -1646 0
1050 -1575 0
1032 -1157 0
7 -762 0
-4 -16 -19 568 0
15 -240 0
-2 -16 -21 408 0
-15 -23 239 0
23 -239 0
7 -761 0
15 -239 0
-15 -22 238 0
9 -926 0
17 -420 0
22 -238 0
7 -760 0
15 -238 0
-15 -21 237 0
9 -988 0
21 -237 0
1045 -1670 0
-1015 -1041 1441 0
-7 -16 -24 816 0
7 -759 0
15 -237 0
-15 -20 236 0
11 -693 0
20 -236 0
7 -758 0
15 -236 0
-15 -19 235 0
1016 -1465 0
19 -235 0
1023 -1649 0
7 -757 0
15 -235 0
-1019 -1026 1526 0
25 -457 0
-14 -27 234 0
-9 -13 -26 953 0
-8 -12 -23 860 0
20 -803 0
27 -234 0
-1012 -1027 1352 0
-1009 -1031 1281 0
6 -756 0
14 -234 0
14 -955 0
-9 -11 -21 930 0
-14 -26 233 0
26 -233 0
6 -739 0
5 -674 0
14 -233 0
1039 -1089 0
-14 -25 232 0
1014 -1410 0
-3 -17 -24 501 0
25 -232 0
1047 -1877 0
-9 -17 -27 990 0
6 -738 0
5 -675 0
-5 -17 -22 661 0
14 -232 0
1047 -1297 0
-14 -24 231 0
24 -231 0
1048 -1943 0
6 -737 0
5 -672 0
14 -231 0
-14 -23 230 0
16 -817 0
23 -230 0
-1003 -1044 1144 0
6 -736 0
5 -673 0
14 -230 0
-1023 -1049 1649 0
-14 -22 229 0
9 -947 0
22 -229 0
6 -735 0
5 -670 0
14 -229 0
-14 -21 228 0
21 -228 0
1038 -1138 0
6 -734 0
5 -671 0
14 -228 0
-14 -20 227 0
16 -488 0
20 -227 0
6 -733 0
5 -668 0
14 -227 0
1046 -1171 0
-14 -19 226 0
19 -226 0
1029 -1579 0
6 -732 0
5 -669 0
14 -226 0
15 -805 0
-5 -12 -25 619 0
-13 -27 225 0
20 -812 0
27 -225 0
1034 -1459 0
13 -225 0
1011 -1348 0
24 -708 0
-13 -26 224 0
-1034 -1047 1877 0
1014 -1403 0
26 -224 0
13 -224 0
10 -603 0
-13 -25 223 0
17 -745 0
25 -223 0
1047 -1919 0
-1015 -1047 1447 0
13 -223 0
-13 -24 222 0
-1022 -1043 1618 0
24 -222 0
1048 -1983 0
1029 -1654 0
13 -222 0
-13 -23 221 0
23 -221 0
-1011 -1045 1345 0
13 -221 0
-13 -22 220 0
-1034 -1043 1873 0
9 -940 0
22 -220 0
1048 -1977 0
13 -220 0
1043 -1979 0
-13 -21 219 0
17 -504 0
21 -219 0
13 -219 0
1044 -1980 0
1043 -1915 0
-1028 -1035 1754 0
1026 -1676 0
1030 -1455 0
-13 -20 218 0
20 -218 0
13 -218 0
-13 -19 217 0
15 -478 0
19 -217 0
13 -217 0
-12 -27 216 0
27 -216 0
12 -216 0
13 -951 0
18 -753 0
26 -215 0
12 -215 0
1041 -1391 0
-12 -25 214 0
1013 -1385 0
-2 -17 -22 418 0
25 -214 0
12 -214 0
1033 -1849 0
1042 -1392 0
-12 -24 213 0
-1027 -1037 1734 0
24 -213 0
1043 -1118 0
-7 -12 -25 781 0
12 -213 0
-12 -23 212 0
20 -506 0
23 -212 0
12 -212 0
-12 -22 211 0
-1005 -1037 1187 0
22 -211 0
1040 -1440 0
12 -211 0
1033 -1658 0
-1021 -1028 1578 0
-12 -21 210 0
-1005 -1036 1186 0
9 -969 0
18 -512 0
21 -210 0
1031 -1816 0
-7 -15 -26 809 0
12 -210 0
1037 -1287 0
-12 -20 209 0
20 -209 0
1031 -1817 0
12 -209 0
1048 -1423 0
-12 -19 208 0
1015 -1429 0
-6 -12 -26 701 0
19 -208 0
12 -208 0
27 -207 0
11 -207 0
15 -725 0
-2 -13 -22 382 0
-11 -26 206 0
26 -206 0
11 -206 0
-1027 -1049 1746 0
-11 -25 205 0
1013 -1376 0
25 -205 0
-1 -10 -21 273 0
11 -205 0
9 -978 0
-11 -24 204 0
15 -647 0
24 -204 0
11 -204 0
-1025 -1028 1678 0
13 -383 0
-11 -23 203 0
23 -203 0
11 -203 0
1016 -1451 0
12 -776 0
20 -254 0
-11 -22 202 0
22 -202 0
1044 -1169 0
11 -202 0
-1025 -1026 1676 0
-9 -11 -19 928 0
-11 -21 201 0
9 -960 0
13 -707 0
21 -201 0
11 -201 0
-11 -20 200 0
20 -200 0
11 -200 0
25 -403 0
-11 -19 199 0
-1023 -1031 1631 0
1016 -1469 0
19 -199 0
11 -199 0
1042 -1117 0
-2 -10 -23 356 0
-10 -27 198 0
27 -198 0
1029 -1304 0
-5 -11 -19 604 0
10 -198 0
-9 -13 -22 949 0
4 -540 0
3 -475 0
-10 -26 197 0
26 -197 0
10 -197 0
-10 -25 196 0
25 -196 0
10 -196 0
-10 -24 195 0
24 -195 0
1022 -1617 0
-10 -23 194 0
23 -194 0
10 -194 0
-10 -22 193 0
-1020 -1040 1565 0
9 -919 0
14 -715 0
22 -193 0
10 -193 0
9 -983 0
21 -192 0
1030 -1355 0
10 -192 0
20 -191 0
-1017 -1027 1477 0
10 -191 0
-1017 -1043 1493 0
-10 -19 190 0
12 -775 0
19 -190 0
-1006 -1047 1222 0
10 -190 0
-9 -27 189 0
27 -189 0
1048 -1845 0
1026 -1702 0
-1006 -1046 1221 0
9 -189 0
1037 -1915 0
-9 -26 188 0
17 -661 0
26 -188 0
1026 -1707 0
9 -188 0
-9 -25 187 0
-1018 -1042 1517 0
1013 -1390 0
25 -187 0
1026 -1708 0
9 -187 0
-9 -24 186 0
24 -186 0
9 -186 0
-9 -23 185 0
15 -723 0
20 -533 0
23 -185 0
1043 -1957 0
9 -185 0
-9 -22 184 0
22 -184 0
9 -184 0
-9 -21 183 0
-1011 -1038 1338 0
1009 -1298 0
9 -934 0
21 -183 0
-6 -16 -26 737 0
9 -183 0
-9 -20 182 0
20 -182 0
9 -182 0
-9 -19 181 0
11 -687 0
-1 -15 -26 323 0
19 -181 0
-6 -17 -19 739 0
9 -181 0
-8 -27 180 0
1019 -1550 0
27 -180 0
8 -180 0
-8 -26 179 0
18 -669 0
26 -179 0
8 -179 0
-1030 -1031 1791 0
25 -178 0
8 -178 0
1047 -1721 0
-8 -24 177 0
-1029 -1050 1790 0
24 -177 0
8 -177 0
11 -935 0
16 -731 0
23 -176 0
8 -176 0
-3 -13 -23 464 0
-8 -22 175 0
10 -926 0
-2 -11 -23 365 0
22 -175 0
1028 -1278 0
-1000 -1033 1058 0
-5 -14 -26 638 0
8 -175 0
-8 -21 174 0
9 -925 0
17 -419 0
21 -174 0
8 -174 0
-1016 -1034 1459 0
-1 -12 -24 294 0
-8 -20 173 0
12 -695 0
20 -173 0
8 -173 0
1042 -1966 0
-8 -19 172 0
19 -172 0
8 -172 0
-7 -27 171 0
1019 -1541 0
27 -171 0
-1011 -1040 1340 0
7 -171 0
1019 -1537 0
23 -428 0
-7 -26 170 0
13 -872 0
26 -170 0
7 -170 0
-7 -25 169 0
-7 -15 -19 802 0
7 -169 0
25 -169 0
-7 -24 168 0
24 -168 0
-1021 -1048 1598 0
7 -168 0
-7 -23 167 0
-1 -15 -22 319 0
23 -167 0
-1037 -1045 1917 0
-5 -10 -24 600 0
7 -167 0
-7 -22 166 0
13 -625 0
18 -427 0
22 -166 0
7 -166 0
1014 -1412 0
17 -740 0
-7 -21 165 0
9 -948 0
21 -165 0
7 -165 0
1022 -1610 0
-7 -20 164 0
1007 -1242 0
11 -605 0
20 -164 0
7 -164 0
15 -728 0
-7 -19 163 0
16 -489 0
19 -163 0
7 -163 0
-6 -27 162 0
-4 -16 -24 573 0
27 -162 0
-9 -17 -26 989 0
2 -407 0
1 -344 0
6 -162 0
-9 -17 -19 982 0
-6 -26 161 0
26 -161 0
2 -406 0
1 -341 0
6 -161 0
-6 -25 160 0
1014 -1402 0
25 -160 0
-1037 -1050 1922 0
1048 -1878 0
2 -405 0
1 -342 0
6 -160 0
-6 -24 159 0
12 -942 0
24 -159 0
2 -412 0
1 -347 0
6 -159 0
1040 -1800 0
-3 -14 -27 477 0
-6 -23 158 0
23 -158 0
1030 -1580 0
2 -411 0
1 -348 0
6 -158 0
-6 -22 157 0
-1014 -1032 1407 0
13 -630 0
22 -157 0
2 -410 0
1 -345 0
6 -157 0
-6 -21 156 0
9 -939 0
21 -156 0
-4 -11 -27 531 0
2 -409 0
1 -346 0
6 -156 0
-6 -20 155 0
1007 -1235 0
20 -155 0
2 -416 0
1 -351 0
6 -155 0
-6 -13 -26 710 0
-6 -19 154 0
-1024 -1036 1661 0
19 -154 0
1048 -1932 0
-1028 -1030 1749 0
-5 -13 -21 624 0
2 -415 0
6 -154 0
-5 -27 153 0
-1005 -1047 1197 0
-12 -26 215 0
27 -153 0
5 -153 0
1003 -1135 0
-5 -26 152 0
26 -152 0
5 -152 0
-5 -25 151 0
-1005 -1045 1195 0
13 -950 0
18 -754 0
25 -151 0
-10 -20 191 0
5 -151 0
-5 -24 150 0
19 -316 0
24 -150 0
1026 -1426 0
5 -150 0
-5 -23 149 0
23 -149 0
-9 -13 -20 947 0
5 -149 0
-5 -22 148 0
14 -638 0
22 -148 0
-7 -12 -27 783 0
5 -148 0
-5 -21 147 0
21 -147 0
5 -147 0
-5 -20 146 0
-1009 -1045 1295 0
8 -913 0
16 -407 0
20 -146 0
-11 -27 207 0
5 -146 0
1049 -1199 0
-5 -19 145 0
19 -145 0
5 -145 0
-4 -27 144 0
27 -144 0
4 -144 0
-4 -26 143 0
26 -143 0
4 -143 0
-4 -25 142 0
-2 -18 -19 424 0
25 -142 0
-1021 -1049 1599 0
4 -142 0
-4 -24 141 0
24 -141 0
4 -141 0
-4 -23 140 0
-1005 -1039 1189 0
15 -646 0
23 -140 0
4 -140 0
11 -773 0
-4 -22 139 0
22 -139 0
4 -139 0
1044 -1369 0
-4 -21 138 0
21 -138 0
4 -138 0
-4 -20 137 0
-1013 -1027 1377 0
-7 -10 -19 757 0
20 -137 0
1019 -1526 0
4 -137 0
-4 -19 136 0
-4 -17 -27 585 0
19 -136 0
4 -136 0
-3 -27 135 0
1028 -1128 0
27 -135 0
3 -135 0
1001 -1096 0
-3 -26 134 0
26 -134 0
-1017 -1029 1479 0
3 -134 0
-3 -25 133 0
25 -133 0
1036 -1086 0
3 -133 0
1042 -1968 0
-3 -24 132 0
11 -852 0
16 -654 0
24 -132 0
1028 -1653 0
1031 -1281 0
3 -132 0
-3 -23 131 0
23 -131 0
3 -131 0
-3 -22 130 0
10 -921 0
17 -336 0
22 -130 0
3 -130 0
-1024 -1045 1670 0
-3 -21 129 0
9 -920 0
14 -714 0
21 -129 0
3 -129 0
1003 -1146 0
-3 -20 128 0
8 -903 0
15 -316 0
20 -128 0
3 -128 0
-3 -19 127 0
19 -127 0
-1023 -1047 1647 0
3 -127 0
1034 -1831 0
-2 -27 126 0
16 -980 0
27 -126 0
2 -126 0
26 -125 0
2 -125 0
17 -662 0
25 -124 0
2 -124 0
11 -849 0
-2 -10 -27 360 0
19 -343 0
24 -123 0
1045 -1145 0
2 -123 0
-2 -23 122 0
23 -122 0
2 -122 0
-2 -22 121 0
17 -341 0
22 -121 0
1042 -1467 0
2 -121 0
-2 -21 120 0
21 -120 0
2 -120 0
-1019 -1037 1537 0
-3 -16 -23 491 0
-2 -20 119 0
8 -878 0
7 -815 0
20 -119 0
-1029 -1038 1778 0
1037 -1687 0
2 -119 0
1000 -1070 0
-2 -19 118 0
19 -118 0
2 -118 0
-1 -27 117 0
27 -117 0
-1 -26 116 0
1005 -1184 0
26 -116 0
1 -116 0
-1017 -1036 1486 0
-1 -25 115 0
18 -670 0
25 -115 0
25 -970 0
-2 -26 125 0
-1 -24 114 0
24 -114 0
24 -924 0
1 -114 0
-2 -25 124 0
-1 -23 113 0
23 -113 0
1038 -1817 0
1041 -1491 0
23 -860 0
1 -113 0
-1 -22 112 0
18 -349 0
22 -112 0
1 -112 0
1045 -1520 0
-1 -21 111 0
-1026 -1030 1704 0
10 -925 0
21 -111 0
-1 -20 110 0
-1014 -1035 1410 0
1008 -1253 0
-9 -12 -23 941 0
8 -885 0
7 -820 0
20 -110 0
27 -612 0
1 -110 0
-1017 -1038 1488 0
-1 -19 109 0
-1014 -1034 1409 0
12 -696 0
19 -109 0
-1032 -1037 1834 0
1 -109 0
10 -195 0
-9 -18 108 0
13 -304 0
18 -108 0
9 -108 0
-3 -10 -27 441 0
-9 -17 107 0
17 -107 0
9 -107 0
12 -458 0
-9 -16 106 0
-5 -15 -25 646 0
12 -375 0
16 -106 0
1017 -1484 0
-4 -18 -19 586 0
9 -106 0
1027 -1738 0
15 -105 0
1017 -1483 0
9 -105 0
1034 -1880 0
-9 -14 104 0
1043 -1978 0
14 -104 0
9 -104 0
-7 -18 -19 829 0
-9 -13 103 0
1038 -1588 0
5 -609 0
-1 -12 -21 291 0
13 -103 0
9 -103 0
1031 -1813 0
1035 -1560 0
-1006 -1037 1212 0
-9 -12 102 0
4 -592 0
12 -102 0
1017 -1480 0
9 -102 0
1031 -1823 0
1050 -1700 0
-9 -11 101 0
11 -101 0
1017 -1479 0
-16 -21 246 0
9 -101 0
-1 -16 -23 329 0
-9 -10 100 0
10 -100 0
1017 -1486 0
9 -100 0
1050 -1600 0
1032 -1282 0
-8 -18 99 0
18 -99 0
-3 -17 -23 500 0
8 -99 0
4 -581 0
-8 -17 98 0
17 -98 0
8 -98 0
2 -393 0
1 -330 0
-8 -16 97 0
16 -97 0
8 -97 0
1 -272 0
-8 -15 96 0
1050 -1847 0
1027 -1729 0
1036 -1336 0
15 -96 0
-2 -14 -27 396 0
8 -96 0
-8 -14 95 0
10 -356 0
14 -95 0
-8 -12 -20 857 0
8 -95 0
-1016 -1043 1468 0
-1000 -1050 1075 0
-8 -13 94 0
6 -681 0
5 -616 0
13 -94 0
8 -94 0
-8 -12 93 0
12 -93 0
1028 -1228 0
8 -93 0
1029 -1154 0
-6 -10 -20 677 0
13 -298 0
-8 -11 92 0
11 -92 0
8 -92 0
1019 -1528 0
-8 -10 91 0
10 -91 0
8 -91 0
8 -859 0
7 -794 0
-7 -18 90 0
1047 -1982 0
1026 -1476 0
18 -90 0
7 -90 0
22 -391 0
-7 -17 89 0
10 -676 0
17 -89 0
7 -89 0
13 -866 0
-7 -16 88 0
-1030 -1040 1800 0
1036 -1311 0
16 -88 0
7 -88 0
-7 -15 87 0
15 -87 0
-1009 -1041 1291 0
7 -87 0
-7 -14 86 0
14 -86 0
7 -86 0
-7 -13 85 0
-7 -15 -21 804 0
13 -85 0
-10 -21 192 0
7 -85 0
-7 -12 84 0
12 -84 0
7 -84 0
-7 -11 83 0
11 -83 0
7 -83 0
-7 -10 82 0
1017 -1491 0
10 -82 0
7 -82 0
1043 -1783 0
-1016 -1035 1460 0
-6 -18 81 0
18 -81 0
2 -358 0
1 -293 0
6 -81 0
-6 -17 80 0
1030 -1380 0
14 -396 0
17 -80 0
2 -357 0
1 -294 0
6 -80 0
1045 -1270 0
23 -788 0
-6 -16 79 0
1027 -1743 0
16 -79 0
2 -364 0
1 -299 0
6 -79 0
-8 -25 178 0
-6 -15 78 0
15 -78 0
2 -363 0
1 -300 0
6 -78 0
-6 -14 77 0
1038 -1563 0
14 -77 0
1047 -1826 0
1025 -1695 0
2 -362 0
1 -297 0
6 -77 0
-8 -23 176 0
-6 -13 76 0
1037 -1562 0
5 -598 0
13 -76 0
1025 -1696 0
2 -361 0
1 -298 0
6 -76 0
-6 -12 75 0
12 -75 0
1025 -1693 0
2 -368 0
1 -303 0
6 -75 0
-1039 -1046 1941 0
-6 -11 74 0
1046 -1975 0
1049 -1649 0
11 -74 0
1025 -1694 0
2 -367 0
1 -304 0
6 -74 0
-6 -10 73 0
1018 -1515 0
10 -73 0
1025 -1699 0
2 -366 0
1 -301 0
6 -73 0
-5 -18 72 0
18 -72 0
2 -430 0
5 -72 0
-5 -17 71 0
14 -389 0
17 -71 0
5 -71 0
1036 -1899 0
-5 -16 70 0
1028 -1767 0
-4 -14 -26 557 0
16 -70 0
5 -70 0
1041 -1900 0
-5 -15 69 0
1031 -1481 0
-1008 -1028 1253 0
15 -69 0
5 -69 0
-5 -14 68 0
14 -68 0
1030 -1555 0
5 -68 0
1044 -1194 0
-5 -13 67 0
13 -67 0
5 -67 0
1046 -1918 0
-5 -12 66 0
12 -66 0
5 -66 0
1033 -1133 0
-5 -11 65 0
1046 -1968 0
11 -65 0
5 -65 0
-5 -10 64 0
-3 -11 -19 442 0
10 -64 0
1033 -1233 0
5 -64 0
27 -576 0
-4 -18 63 0
-7 -18 -24 834 0
18 -63 0
4 -63 0
-1039 -1040 1935 0
-8 -15 -23 887 0
-4 -17 62 0
17 -62 0
4 -62 0
-4 -16 61 0
1028 -1766 0
1027 -1701 0
16 -61 0
4 -61 0
-4 -15 60 0
-9 -15 105 0
15 -60 0
1048 -1173 0
25 -754 0
4 -60 0
-4 -14 59 0
-1046 -1049 1993 0
14 -59 0
4 -59 0
-4 -13 58 0
13 -58 0
4 -58 0
-4 -12 57 0
4 -515 0
3 -452 0
12 -57 0
1043 -1368 0
26 -818 0
4 -57 0
-4 -11 56 0
4 -577 0
11 -56 0
-8 -10 -19 838 0
4 -56 0
-4 -10 55 0
10 -55 0
21 -984 0
4 -55 0
-3 -18 54 0
14 -307 0
18 -54 0
-8 -17 -27 909 0
3 -54 0
-3 -17 53 0
13 -306 0
17 -53 0
-7 -14 -20 794 0
3 -53 0
-3 -16 52 0
-1040 -1048 1953 0
16 -52 0
3 -52 0
27 -603 0
1 -117 0
-3 -15 51 0
15 -51 0
-4 -14 -22 553 0
3 -51 0
-3 -14 50 0
14 -50 0
3 -50 0
27 -513 0
-3 -13 49 0
1034 -1731 0
13 -49 0
3 -49 0
-3 -12 48 0
4 -522 0
3 -457 0
12 -48 0
3 -48 0
-3 -11 47 0
4 -586 0
11 -47 0
3 -47 0
-4 -11 -19 523 0
-3 -10 46 0
10 -46 0
-4 -18 -26 593 0
3 -46 0
-2 -18 45 0
18 -45 0
2 -45 0
-2 -17 44 0
1044 -1889 0
13 -305 0
17 -44 0
2 -44 0
-2 -16 43 0
16 -43 0
-6 -16 -21 732 0
2 -43 0
-2 -15 42 0
12 -376 0
15 -42 0
1046 -1671 0
2 -42 0
-2 -14 41 0
14 -41 0
2 -41 0
-2 -13 40 0
1043 -1977 0
-1035 -1047 1892 0
1033 -1707 0
1037 -1462 0
13 -40 0
1041 -1441 0
2 -40 0
1038 -1928 0
1042 -1667 0
1004 -1173 0
-2 -12 39 0
4 -529 0
3 -466 0
12 -39 0
2 -39 0
-2 -11 38 0
4 -591 0
11 -38 0
-2 -24 123 0
2 -38 0
-2 -10 37 0
10 -37 0
1045 -1195 0
27 -972 0
-4 -13 -19 541 0
2 -37 0
-1032 -1049 1846 0
-1 -18 36 0
18 -36 0
-1020 -1031 1556 0
1050 -1075 0
1 -36 0
-1032 -1050 1847 0
-1 -17 35 0
17 -35 0
1 -35 0
-1033 -1037 1851 0
1000 -1054 0
-1 -16 34 0
16 -34 0
-1026 -1048 1722 0
1 -34 0
-1033 -1038 1852 0
-1 -15 33 0
1050 -1790 0
15 -33 0
1 -33 0
1045 -1220 0
1 -111 0
-1 -14 32 0
1043 -1938 0
-5 -10 -25 601 0
14 -32 0
1 -32 0
24 -969 0
-1 -13 31 0
10 -355 0
13 -31 0
1 -31 0
-1038 -1041 1925 0
-1000 -1039 1064 0
1 -115 0
-1 -12 30 0
4 -536 0
3 -471 0
12 -30 0
1042 -1567 0
-1017 -1044 1494 0
1 -30 0
-1022 -1039 1614 0
-1 -11 29 0
11 -29 0
1037 -1756 0
27 -531 0
1 -29 0
-1 -10 28 0
10 -28 0
1038 -1778 0
1 -28 0
x 1007 1009 1010 1011 1012 1015 1016 1017 1018 1021 1022 1024 1026 1029 1032 1033 1034 1036 1038 1042 1046 1048 1049 1053 1054 1057 1059 1062 1063 1068 1070 1072 1074 1075 1078 1079 1082 1083 1084 1085 1090 1091 1093 1096 1097 1099 1103 1104 1105 1106 1110 1113 1116 1129 1131 1132 1133 1134 1136 1138 1139 1143 1144 1146 1151 1154 1157 1158 1159 1161 1166 1168 1169 1170 1173 1175 1176 1177 1179 1181 1184 1186 1189 1193 1194 1196 1197 1199 1202 1203 1206 1207 1209 1210 1212 1215 1217 1218 1219 1220 1221 1223 1224 1225 1226 1227 1228 1229 1232 1233 1234 1235 1238 1239 1241 1243 1244 1245 1249 1254 1255 1256 1257 1261 1262 1263 1267 1268 1269 1270 1271 1278 1279 1280 1281 1282 1284 1285 1290 1293 1297 1298 1301 1302 1303 1304 1305 1307 1308 1313 1316 1320 1321 1326 1327 1328 1330 1331 1336 1339 1343 1344 1350 1351 1353 1354 1359 1362 1366 1367 1373 1374 1375 1376 1377 1382 1385 1389 1390 1396 1397 1398 1405 1408 1412 1413 1419 1420 1421 1425 1428 1431 1435 1436 1442 1443 1444 1448 1450 1451 1454 1458 1459 1465 1466 1467 1471 1473 1474 1475 1477 1481 1482 1488 1489 1490 1494 1496 1497 1498 1504 1505 1511 1512 1513 1517 1519 1520 1521 1524 1527 1528 1534 1535 1536 1540 1542 1543 1544 1547 1549 1550 1551 1557 1558 1559 1563 1565 1566 1567 1570 1572 1573 1575 1580 1581 1582 1586 1588 1589 1590 1593 1595 1596 1598 1600 1603 1604 1605 1609 1611 1612 1613 1616 1618 1619 1621 1623 1624 1625 1626 1627 1628 1632 1634 1635 1636 1639 1641 1642 1644 1646 1647 1648 1649 1651 1655 1657 1658 1659 1662 1664 1665 1667 1669 1670 1671 1672 1678 1680 1681 1682 1685 1687 1688 1690 1692 1693 1694 1695 1699 1700 1702 1703 1704 1705 1706 1707 1708 1709 1711 1715 1717 1720 1721 1722 1725 1726 1728 1731 1735 1737 1738 1742 1744 1745 1746 1748 1749 1750 1751 1752 1754 1755 1756 1757 1760 1763 1765 1766 1768 1769 1770 1772 1775 1776 1777 1778 1782 1783 1784 1786 1790 1792 1793 1795 1798 1801 1803 1811 1816 1817 1818 1820 1821 1823 1824 1825 1826 1827 1828 1830 1833 1837 1838 1841 1842 1843 1846 1848 1849 1850 1851 1852 1853 1855 1856 1859 1860 1862 1865 1867 1868 1869 1871 1872 1873 1874 1878 1879 1882 1884 1886 1888 1889 1890 1893 1894 1895 1899 1901 1902 1904 1905 1907 1908 1909 1910 1911 1912 1914 1917 1921 1923 1927 1928 1930 1931 1933 1934 1935 1938 1941 1945 1946 1948 1949 1950 1958 1959 1960 1961 1962 1963 1964 1965 1967 1968 1970 1971 1972 1974 1978 1981 1982 1984 1985 1986 1989 1990 1991 1993 1996 1997 1998 1999 0
x -1011 1013 1015 1016 1017 1019 1020 1025 1029 1030 1031 1033 1035 1036 1038 1039 1043 1044 1045 1046 1049 1050 1054 1055 1058 1061 1063 1067 1069 1071 1072 1073 1075 1076 1079 1080 1081 1082 1083 1084 1086 1087 1089 1090 1092 1095 1100 1101 1105 1109 1110 1111 1112 1115 1120 1122 1124 1126 1127 1130 1131 1132 1133 1134 1137 1138 1142 1143 1144 1145 1146 1148 1149 1150 1151 1152 1153 1156 1157 1159 1160 1165 1167 1169 1170 1173 1174 1175 1178 1180 1182 1185 1188 1193 1194 1195 1197 1198 1199 1200 1201 1202 1205 1207 1208 1209 1211 1214 1217 1219 1221 1222 1225 1226 1227 1228 1230 1232 1233 1234 1237 1238 1243 1245 1247 1253 1256 1260 1261 1262 1264 1267 1270 1271 1272 1275 1277 1278 1279 1280 1281 1283 1284 1289 1292 1296 1297 1301 1302 1303 1304 1306 1307 1312 1315 1319 1320 1326 1327 1329 1330 1335 1338 1342 1343 1349 1350 1352 1353 1358 1361 1365 1366 1372 1373 1374 1376 1381 1384 1388 1389 1395 1396 1397 1404 1407 1411 1412 1418 1419 1420 1424 1427 1430 1434 1435 1441 1442 1443 1447 1449 1450 1453 1457 1458 1464 1465 1466 1470 1472 1473 1474 1476 1480 1481 1487 1488 1489 1493 1495 1496 1497 1500 1503 1504 1510 1511 1512 1516 1518 1519 1520 1523 1525 1526 1527 1533 1534 1535 1539 1541 1542 1543 1546 1548 1549 1556 1557 1558 1562 1564 1565 1566 1569 1571 1572 1574 1579 1580 1581 1585 1587 1588 1589 1592 1594 1595 1597 1599 1600 1602 1603 1604 1608 1610 1611 1612 1615 1617 1618 1620 1622 1623 1624 1625 1626 1627 1631 1633 1634 1635 1638 1640 1641 1643 1645 1646 1647 1648 1654 1656 1657 1658 1661 1663 1664 1666 1668 1669 1670 1671 1675 1677 1679 1680 1681 1684 1686 1687 1689 1691 1692 1693 1694 1698 1699 1701 1702 1706 1709 1710 1711 1712 1716 1717 1718 1719 1723 1724 1728 1731 1733 1734 1736 1737 1739 1741 1742 1744 1745 1746 1747 1750 1752 1754 1758 1759 1761 1770 1771 1772 1773 1774 1776 1777 1782 1783 1784 1788 1793 1794 1795 1796 1797 1798 1800 1801 1804 1805 1807 1808 1809 1811 1813 1815 1816 1817 1820 1824 1825 1829 1831 1834 1836 1838 1842 1843 1844 1847 1848 1849 1850 1851 1852 1853 1854 1855 1856 1857 1858 1859 1860 1863 1867 1868 1869 1871 1875 1876 1878 1881 1885 1886 1888 1889 1890 1891 1892 1897 1905 1906 1907 1908 1910 1911 1912 1917 1919 1921 1924 1925 1926 1928 1930 1932 1933 1935 1937 1938 1939 1940 1941 1942 1943 1944 1945 1954 1955 1956 1958 1962 1964 1965 1966 1967 1969 1974 1975 1979 1980 1981 1982 1984 1987 1988 1990 1991 1992 1993 1994 1998 2000 0
x 1009 1010 1011 1013 1015 1016 1017 1020 1021 1028 1029 1031 1032 1034 1038 1041 1044 1047 1049 1050 1053 1054 1057 1058 1059 1060 1065 1066 1068 1071 1072 1074 1078 1079 1080 1081 1085 1088 1091 1104 1106 1107 1108 1109 1111 1113 1114 1118 1119 1121 1126 1129 1132 1133 1134 1136 1141 1143 1144 1145 1148 1150 1151 1152 1154 1156 1159 1161 1164 1168 1169 1171 1172 1174 1177 1178 1181 1182 1184 1185 1187 1190 1192 1193 1194 1195 1196 1198 1199 1200 1201 1202 1203 1204 1207 1208 1209 1210 1213 1214 1216 1218 1219 1220 1224 1229 1230 1231 1232 1236 1237 1238 1242 1243 1244 1245 1246 1251 1252 1254 1255 1257 1259 1260 1261 1262 1263 1266 1267 1270 1271 1274 1276 1277 1278 1279 1280 1282 1283 1288 1291 1295 1296 1301 1302 1303 1305 1306 1311 1314 1318 1319 1325 1326 1328 1329 1334 1337 1341 1342 1348 1349 1350 1351 1352 1357 1360 1364 1365 1371 1372 1373 1380 1383 1387 1388 1394 1395 1396 1400 1403 1406 1410 1411 1417 1418 1419 1423 1425 1426 1429 1433 1434 1440 1441 1442 1446 1448 1449 1450 1452 1456 1457 1463 1464 1465 1469 1471 1472 1473 1479 1480 1486 1487 1488 1492 1494 1495 1496 1499 1502 1503 1509 1510 1511 1515 1517 1518 1519 1522 1524 1525 1526 1532 1533 1534 1538 1540 1541 1542 1545 1547 1548 1550 1555 1556 1557 1561 1563 1564 1565 1568 1570 1571 1573 1575 1578 1579 1580 1584 1586 1587 1588 1591 1593 1594 1596 1598 1599 1600 1601 1602 1603 1607 1609 1610 1611 1614 1616 1617 1619 1621 1622 1623 1624 1626 1630 1632 1633 1634 1637 1639 1640 1642 1644 1645 1646 1647 1653 1655 1656 1657 1660 1662 1663 1665 1667 1668 1669 1670 1674 1675 1676 1678 1679 1680 1683 1685 1686 1688 1690 1691 1692 1693 1697 1698 1700 1702 1704 1707 1709 1711 1715 1717 1718 1719 1720 1722 1724 1725 1726 1729 1731 1732 1734 1735 1738 1739 1741 1742 1744 1748 1752 1753 1754 1757 1758 1763 1764 1767 1768 1770 1778 1783 1784 1785 1788 1789 1791 1793 1795 1796 1797 1799 1806 1811 1812 1813 1815 1820 1822 1824 1825 1826 1827 1828 1829 1833 1835 1836 1837 1839 1840 1841 1842 1844 1849 1851 1852 1855 1858 1860 1861 1862 1864 1866 1867 1870 1871 1872 1874 1876 1877 1878 1879 1880 1883 1885 1886 1888 1899 1900 1903 1905 1908 1911 1912 1913 1915 1917 1918 1920 1922 1925 1928 1929 1930 1935 1936 1940 1941 1942 1943 1945 1947 1948 1950 1951 1952 1953 1956 1961 1962 1964 1965 1967 1970 1973 1974 1976 1977 1978 1981 1982 1983 1984 1990 1991 1994 1995 1997 1999 2000 0
x -1011 1013 1015 1017 1018 1019 1021 1023 1024 1025 1027 1030 1032 1033 1034 1035 1039 1040 1045 1047 1048 1051 1054 1055 1056 1057 1058 1059 1061 1062 1064 1065 1067 1070 1075 1076 1080 1084 1085 1086 1087 1090 1095 1097 1099 1101 1102 1105 1106 1107 1108 1109 1112 1113 1117 1118 1119 1120 1121 1123 1124 1125 1126 1127 1128 1131 1132 1134 1135 1140 1142 1144 1145 1148 1149 1150 1153 1155 1157 1160 1163 1168 1169 1170 1172 1173 1174 1175 1176 1177 1180 1182 1183 1184 1186 1189 1192 1194 1196 1197 1200 1201 1202 1203 1205 1207 1208 1209 1212 1213 1218 1220 1222 1228 1231 1235 1236 1237 1239 1242 1245 1246 1247 1250 1251 1256 1258 1259 1260 1261 1262 1263 1266 1267 1268 1269 1271 1273 1275 1276 1277 1278 1279 1281 1282 1287 1290 1294 1295 1301 1302 1304 1305 1310 1313 1317 1318 1324 1325 1327 1328 1333 1336 1340 1341 1347 1348 1349 1351 1356 1359 1363 1364 1370 1371 1372 1379 1382 1386 1387 1393 1394 1395 1399 1402 1405 1409 1410 1416 1417 1418 1422 1424 1425 1428 1432 1433 1439 1440 1441 1445 1447 1448 1449 1451 1455 1456 1462 1463 1464 1468 1470 1471 1472 1475 1478 1479 1485 1486 1487 1491 1493 1494 1495 1498 1500 1501 1502 1508 1509 1510 1514 1516 1517 1518 1521 1523 1524 1531 1532 1533 1537 1539 1540 1541 1544 1546 1547 1549 1554 1555 1556 1560 1562 1563 1564 1567 1569 1570 1572 1574 1575 1577 1578 1579 1583 1585 1586 1587 1590 1592 1593 1595 1597 1598 1599 1600 1601 1602 1606 1608 1609 1610 1613 1615 1616 1618 1620 1621 1622 1623 1629 1631 1632 1633 1636 1638 1639 1641 1643 1644 1645 1646 1650 1652 1654 1655 1656 1659 1661 1662 1664 1666 1667 1668 1669 1673 1674 1677 1678 1679 1682 1684 1685 1687 1689 1690 1691 1692 1696 1697 1699 1700 1701 1702 1704 1707 1711 1713 1714 1718 1720 1721 1722 1725 1726 1727 1728 1729 1731 1732 1733 1734 1737 1740 1742 1743 1745 1746 1747 1748 1750 1753 1754 1755 1756 1760 1761 1762 1764 1768 1771 1772 1774 1777 1780 1782 1791 1796 1797 1798 1800 1801 1803 1804 1805 1806 1807 1808 1811 1814 1818 1819 1822 1823 1824 1827 1829 1830 1831 1832 1833 1834 1835 1837 1838 1841 1842 1844 1847 1848 1850 1851 1852 1854 1855 1856 1857 1861 1862 1866 1868 1870 1872 1873 1874 1877 1878 1879 1880 1884 1886 1887 1889 1890 1892 1893 1894 1896 1897 1898 1900 1903 1907 1910 1914 1915 1917 1918 1920 1921 1922 1923 1926 1929 1933 1935 1937 1938 1939 1948 1949 1950 1951 1952 1953 1954 1955 1956 1958 1959 1961 1962 1963 1966 1970 1974 1975 1977 1978 1979 1980 1983 1984 1986 1988 1990 1992 1993 1995 1996 1997 0
x 1006 1012 1013 1014 1015 1019 1020 1021 1025 1026 1029 1030 1032 1037 1038 1041 1044 1045 1047 1048 1049 1053 1054 1055 1056 1060 1063 1066 1079 1081 1082 1083 1084 1086 1088 1089 1093 1094 1096 1101 1104 1107 1108 1109 1111 1116 1118 1119 1120 1123 1125 1126 1127 1129 1131 1134 1136 1139 1143 1144 1146 1147 1149 1152 1153 1156 1157 1159 1160 1162 1165 1167 1168 1169 1170 1171 1173 1174 1175 1176 1177 1178 1179 1182 1183 1184 1185 1188 1189 1191 1193 1194 1195 1199 1204 1205 1206 1207 1211 1212 1213 1217 1218 1219 1220 1221 1226 1227 1229 1230 1232 1234 1235 1236 1237 1238 1241 1242 1245 1246 1249 1253 1255 1256 1257 1258 1259 1260 1262 1265 1267 1270 1272 1274 1275 1276 1277 1278 1280 1281 1286 1289 1293 1294 1300 1301 1303 1304 1309 1312 1316 1317 1323 1324 1325 1326 1327 1332 1335 1339 1340 1346 1347 1348 1355 1358 1362 1363 1369 1370 1371 1375 1378 1381 1385 1386 1392 1393 1394 1398 1400 1401 1404 1408 1409 1415 1416 1417 1421 1423 1424 1425 1427 1431 1432 1438 1439 1440 1444 1446 1447 1448 1454 1455 1461 1462 1463 1467 1469 1470 1471 1474 1477 1478 1484 1485 1486 1490 1492 1493 1494 1497 1499 1500 1501 1507 1508 1509 1513 1515 1516 1517 1520 1522 1523 1525 1530 1531 1532 1536 1538 1539 1540 1543 1545 1546 1548 1550 1553 1554 1555 1559 1561 1562 1563 1566 1568 1569 1571 1573 1574 1575 1576 1577 1578 1582 1584 1585 1586 1589 1591 1592 1594 1596 1597 1598 1599 1601 1605 1607 1608 1609 1612 1614 1615 1617 1619 1620 1621 1622 1628 1630 1631 1632 1635 1637 1638 1640 1642 1643 1644 1645 1649 1650 1651 1653 1654 1655 1658 1660 1661 1663 1665 1666 1667 1668 1672 1673 1675 1676 1677 1678 1681 1683 1684 1686 1688 1689 1690 1691 1695 1696 1698 1699 1704 1707 1709 1710 1712 1713 1715 1717 1718 1720 1721 1722 1723 1724 1727 1729 1731 1735 1736 1738 1748 1749 1750 1751 1752 1754 1755 1760 1761 1762 1766 1772 1773 1774 1775 1776 1777 1779 1780 1783 1784 1786 1787 1788 1790 1791 1793 1795 1796 1797 1800 1804 1805 1809 1810 1812 1815 1817 1819 1823 1824 1825 1828 1829 1830 1831 1832 1833 1834 1835 1836 1837 1838 1839 1840 1841 1842 1845 1847 1850 1851 1852 1854 1858 1859 1861 1865 1869 1870 1872 1873 1874 1875 1876 1882 1890 1891 1892 1893 1896 1897 1898 1903 1905 1907 1911 1912 1913 1915 1917 1919 1920 1922 1923 1925 1926 1927 1928 1929 1930 1931 1932 1933 1943 1944 1946 1948 1952 1954 1955 1956 1957 1958 1960 1964 1966 1967 1971 1972 1973 1974 1975 1977 1979 1981 1982 1984 1985 1986 1987 1988 1989 1990 1995 1998 1999 2000 0
x -1009 1011 1013 1014 1018 1019 1020 1022 1024 1025 1026 1030 1033 1035 1039 1040 1041 1042 1043 1045 1046 1048 1050 1051 1055 1059 1060 1061 1062 1065 1070 1072 1074 1076 1077 1080 1081 1082 1083 1084 1087 1088 1092 1093 1094 1095 1096 1098 1099 1100 1101 1102 1103 1106 1107 1109 1110 1115 1117 1119 1120 1123 1124 1125 1128 1130 1132 1135 1138 1143 1144 1145 1147 1148 1149 1150 1151 1152 1155 1157 1158 1159 1161 1164 1167 1169 1171 1172 1175 1176 1177 1178 1180 1182 1183 1184 1187 1188 1193 1195 1197 1203 1206 1210 1211 1212 1214 1217 1220 1221 1222 1225 1226 1231 1233 1234 1235 1236 1237 1238 1241 1242 1243 1244 1246 1248 1250 1253 1254 1255 1256 1257 1258 1259 1261 1262 1267 1270 1271 1273 1275 1276 1277 1279 1280 1285 1288 1292 1293 1299 1300 1302 1303 1308 1311 1315 1316 1322 1323 1324 1326 1331 1334 1338 1339 1345 1346 1347 1354 1357 1361 1362 1368 1369 1370 1374 1377 1380 1384 1385 1391 1392 1393 1397 1399 1400 1403 1407 1408 1414 1415 1416 1420 1422 1423 1424 1426 1430 1431 1437 1438 1439 1443 1445 1446 1447 1450 1453 1454 1460 1461 1462 1466 1468 1469 1470 1473 1475 1476 1477 1483 1484 1485 1489 1491 1492 1493 1496 1498 1499 1506 1507 1508 1512 1514 1515 1516 1519 1521 1522 1524 1529 1530 1531 1535 1537 1538 1539 1542 1544 1545 1547 1549 1550 1552 1553 1554 1558 1560 1561 1562 1565 1567 1568 1570 1572 1573 1574 1575 1576 1577 1581 1583 1584 1585 1588 1590 1591 1593 1595 1596 1597 1598 1604 1606 1607 1608 1611 1613 1614 1616 1618 1619 1620 1621 1625 1627 1629 1630 1631 1634 1636 1637 1639 1641 1642 1643 1644 1648 1649 1652 1653 1654 1657 1659 1660 1662 1664 1665 1666 1667 1671 1672 1674 1675 1676 1677 1680 1682 1683 1685 1687 1688 1689 1690 1694 1695 1697 1698 1700 1701 1702 1705 1707 1708 1710 1711 1714 1715 1717 1718 1720 1724 1725 1729 1730 1731 1734 1735 1740 1741 1744 1745 1748 1756 1761 1762 1763 1766 1767 1769 1770 1772 1774 1775 1776 1778 1785 1791 1792 1793 1795 1800 1802 1804 1805 1806 1807 1808 1809 1814 1816 1817 1818 1820 1821 1822 1823 1825 1829 1831 1833 1834 1837 1840 1842 1843 1844 1846 1847 1849 1850 1853 1854 1855 1857 1859 1860 1861 1862 1863 1864 1867 1869 1870 1872 1884 1885 1888 1890 1893 1895 1897 1898 1899 1901 1903 1904 1906 1908 1912 1915 1916 1917 1922 1923 1924 1928 1929 1930 1931 1933 1936 1937 1939 1940 1941 1942 1945 1946 1951 1952 1954 1955 1956 1958 1961 1964 1965 1966 1968 1969 1970 1974 1975 1976 1977 1984 1985 1986 1989 1990 1991 1993 1996 1998 1999 2000 0
x -1011 1014 1018 1019 1020 1022 1025 1026 1028 1034 1035 1036 1042 1044 1046 1047 1048 1049 1050 1054 1056 1057 1058 1059 1061 1063 1064 1068 1069 1071 1076 1079 1082 1083 1084 1086 1091 1093 1094 1095 1098 1100 1101 1102 1104 1106 1109 1111 1114 1118 1119 1121 1122 1124 1127 1128 1131 1132 1134 1135 1137 1140 1142 1143 1144 1145 1146 1148 1149 1150 1151 1152 1153 1154 1157 1158 1159 1160 1163 1164 1166 1168 1169 1170 1174 1179 1180 1181 1182 1186 1187 1188 1192 1193 1194 1195 1196 1201 1202 1204 1205 1207 1209 1210 1211 1212 1213 1216 1217 1220 1221 1224 1228 1230 1231 1232 1233 1234 1235 1237 1240 1242 1245 1247 1249 1250 1253 1254 1256 1257 1258 1261 1265 1266 1267 1269 1270 1272 1274 1276 1278 1279 1284 1287 1291 1292 1298 1299 1300 1301 1302 1307 1310 1314 1315 1321 1322 1323 1330 1333 1337 1338 1344 1345 1346 1350 1353 1356 1360 1361 1367 1368 1369 1373 1375 1376 1379 1383 1384 1390 1391 1392 1396 1398 1399 1400 1402 1406 1407 1413 1414 1415 1419 1421 1422 1423 1429 1430 1436 1437 1438 1442 1444 1445 1446 1449 1452 1453 1459 1460 1461 1465 1467 1468 1469 1472 1474 1475 1476 1482 1483 1484 1488 1490 1491 1492 1495 1497 1498 1500 1505 1506 1507 1511 1513 1514 1515 1518 1520 1521 1523 1525 1528 1529 1530 1534 1536 1537 1538 1541 1543 1544 1546 1548 1549 1550 1551 1552 1553 1557 1559 1560 1561 1564 1566 1567 1569 1571 1572 1573 1574 1576 1580 1582 1583 1584 1587 1589 1590 1592 1594 1595 1596 1597 1603 1605 1606 1607 1610 1612 1613 1615 1617 1618 1619 1620 1624 1625 1626 1628 1629 1630 1633 1635 1636 1638 1640 1641 1642 1643 1647 1648 1650 1651 1652 1653 1656 1658 1659 1661 1663 1664 1665 1666 1670 1671 1673 1674 1676 1679 1681 1682 1684 1686 1687 1688 1689 1693 1694 1696 1697 1699 1701 1702 1703 1704 1705 1707 1708 1709 1710 1713 1716 1718 1719 1721 1722 1723 1725 1727 1730 1731 1732 1733 1737 1738 1739 1741 1745 1747 1749 1750 1752 1755 1758 1760 1769 1770 1775 1776 1777 1779 1780 1782 1783 1784 1785 1786 1787 1791 1794 1798 1799 1802 1803 1804 1807 1809 1810 1811 1812 1813 1814 1815 1816 1818 1819 1822 1823 1825 1828 1830 1832 1833 1834 1836 1837 1838 1839 1843 1844 1849 1851 1853 1855 1856 1857 1860 1861 1862 1863 1868 1870 1871 1873 1874 1876 1877 1878 1880 1881 1882 1883 1885 1888 1892 1895 1896 1900 1901 1903 1904 1906 1907 1908 1910 1913 1916 1920 1923 1925 1926 1927 1937 1938 1939 1940 1941 1942 1943 1944 1946 1948 1949 1951 1952 1953 1957 1961 1966 1967 1969 1970 1971 1972 1973 1976 1977 1979 1980 1982 1984 1987 1988 1990 1991 1992 1993 0
x 1009 1011 1015 1016 1017 1018 1019 1020 1021 1022 1023 1024 1025 1029 1030 1031 1033 1035 1039 1040 1041 1043 1045 1046 1049 1050 1051 1052 1055 1056 1057 1058 1059 1062 1063 1067 1068 1069 1070 1071 1073 1074 1075 1076 1077 1078 1081 1082 1084 1085 1090 1092 1094 1095 1098 1099 1100 1103 1105 1107 1110 1113 1118 1119 1120 1122 1123 1124 1125 1126 1127 1130 1132 1133 1134 1136 1139 1142 1144 1146 1147 1150 1151 1152 1153 1155 1157 1158 1159 1162 1163 1168 1170 1172 1178 1181 1185 1186 1187 1189 1192 1195 1196 1197 1200 1201 1206 1208 1209 1210 1211 1212 1213 1216 1217 1218 1219 1221 1223 1225 1228 1229 1230 1231 1232 1233 1234 1236 1237 1242 1245 1246 1248 1250 1251 1253 1255 1256 1257 1260 1261 1263 1264 1271 1274 1275 1277 1278 1283 1286 1290 1291 1297 1298 1299 1301 1306 1309 1313 1314 1320 1321 1322 1329 1332 1336 1337 1343 1344 1345 1349 1352 1355 1359 1360 1366 1367 1368 1372 1374 1375 1378 1382 1383 1389 1390 1391 1395 1397 1398 1399 1401 1405 1406 1412 1413 1414 1418 1420 1421 1422 1425 1428 1429 1435 1436 1437 1441 1443 1444 1445 1448 1450 1451 1452 1458 1459 1460 1464 1466 1467 1468 1471 1473 1474 1481 1482 1483 1487 1489 1490 1491 1494 1496 1497 1499 1504 1505 1506 1510 1512 1513 1514 1517 1519 1520 1522 1524 1525 1527 1528 1529 1533 1535 1536 1537 1540 1542 1543 1545 1547 1548 1549 1550 1551 1552 1556 1558 1559 1560 1563 1565 1566 1568 1570 1571 1572 1573 1579 1581 1582 1583 1586 1588 1589 1591 1593 1594 1595 1596 1600 1602 1604 1605 1606 1609 1611 1612 1614 1616 1617 1618 1619 1623 1624 1627 1628 1629 1632 1634 1635 1637 1639 1640 1641 1642 1646 1647 1649 1650 1651 1652 1655 1657 1658 1660 1662 1663 1664 1665 1669 1670 1672 1673 1675 1678 1680 1681 1683 1685 1686 1687 1688 1692 1693 1695 1696 1698 1703 1705 1707 1711 1712 1714 1724 1725 1726 1727 1728 1729 1731 1732 1737 1738 1739 1743 1747 1750 1751 1752 1753 1754 1755 1757 1758 1761 1762 1764 1765 1766 1768 1769 1770 1772 1774 1775 1776 1779 1783 1784 1788 1789 1792 1795 1797 1799 1803 1804 1805 1808 1809 1811 1812 1813 1814 1815 1816 1817 1818 1819 1820 1821 1822 1823 1826 1828 1829 1832 1833 1834 1836 1840 1841 1843 1847 1848 1852 1853 1855 1856 1857 1858 1859 1864 1866 1874 1875 1876 1877 1881 1882 1883 1888 1890 1892 1895 1897 1898 1899 1901 1903 1905 1906 1908 1909 1910 1912 1913 1914 1915 1916 1917 1918 1919 1920 1931 1932 1935 1937 1941 1943 1944 1946 1947 1948 1950 1954 1957 1958 1962 1963 1965 1966 1967 1969 1971 1974 1975 1977 1978 1980 1981 1982 1983 1984 1991 1994 1995 1996 1998 1999 0
x -1005 1009 1010 1012 1013 1015 1017 1018 1019 1020 1021 1024 1025 1026 1028 1029 1032 1033 1034 1035 1036 1037 1040 1042 1043 1046 1050 1051 1054 1057 1058 1059 1061 1066 1068 1069 1070 1073 1075 1076 1077 1079 1081 1084 1086 1089 1093 1094 1096 1097 1099 1102 1103 1106 1107 1109 1110 1112 1115 1117 1118 1119 1120 1121 1123 1124 1125 1126 1127 1128 1129 1132 1133 1134 1135 1138 1139 1141 1143 1144 1145 1149 1154 1155 1156 1157 1161 1162 1163 1167 1168 1169 1170 1171 1176 1177 1179 1180 1182 1184 1185 1186 1187 1188 1191 1192 1195 1196 1199 1203 1205 1206 1207 1208 1209 1210 1212 1215 1217 1220 1222 1224 1225 1228 1229 1231 1232 1233 1236 1240 1241 1242 1244 1245 1247 1249 1251 1252 1255 1256 1260 1262 1263 1264 1266 1270 1273 1276 1277 1282 1285 1289 1290 1296 1297 1298 1305 1308 1312 1313 1319 1320 1321 1325 1328 1331 1335 1336 1342 1343 1344 1348 1350 1351 1354 1358 1359 1365 1366 1367 1371 1373 1374 1375 1377 1381 1382 1388 1389 1390 1394 1396 1397 1398 1404 1405 1411 1412 1413 1417 1419 1420 1421 1424 1427 1428 1434 1435 1436 1440 1442 1443 1444 1447 1449 1450 1451 1457 1458 1459 1463 1465 1466 1467 1470 1472 1473 1475 1480 1481 1482 1486 1488 1489 1490 1493 1495 1496 1498 1500 1503 1504 1505 1509 1511 1512 1513 1516 1518 1519 1521 1523 1524 1525 1526 1527 1528 1532 1534 1535 1536 1539 1541 1542 1544 1546 1547 1548 1549 1551 1555 1557 1558 1559 1562 1564 1565 1567 1569 1570 1571 1572 1578 1580 1581 1582 1585 1587 1588 1590 1592 1593 1594 1595 1599 1600 1601 1603 1604 1605 1608 1610 1611 1613 1615 1616 1617 1618 1622 1623 1625 1626 1627 1628 1631 1633 1634 1636 1638 1639 1640 1641 1645 1646 1648 1649 1651 1654 1656 1657 1659 1661 1662 1663 1664 1668 1669 1671 1672 1674 1677 1679 1680 1682 1684 1685 1686 1687 1691 1692 1694 1695 1697 1700 1701 1705 1706 1707 1710 1711 1716 1717 1720 1721 1724 1725 1733 1738 1739 1740 1743 1744 1746 1748 1750 1752 1753 1754 1756 1763 1770 1771 1772 1774 1779 1781 1783 1784 1785 1786 1787 1788 1794 1796 1797 1798 1800 1801 1802 1803 1805 1809 1812 1814 1815 1818 1821 1823 1824 1825 1827 1828 1831 1832 1835 1836 1837 1839 1841 1842 1843 1844 1845 1846 1847 1850 1852 1853 1855 1868 1869 1872 1874 1877 1879 1882 1883 1884 1886 1888 1889 1891 1893 1898 1901 1902 1903 1908 1910 1911 1915 1916 1917 1918 1920 1922 1924 1925 1927 1928 1929 1930 1933 1934 1935 1940 1941 1943 1944 1945 1946 1948 1951 1954 1956 1957 1959 1960 1961 1964 1966 1967 1968 1969 1977 1978 1979 1980 1983 1984 1985 1986 1988 1990 1992 1994 1995 1996 1998 0
x -1009 1011 1012 1014 1017 1019 1020 1021 1023 1024 1026 1030 1031 1035 1038 1040 1041 1042 1045 1047 1048 1049 1050 1051 1052 1053 1056 1057 1059 1060 1065 1067 1069 1070 1073 1074 1075 1078 1080 1082 1085 1088 1093 1094 1095 1097 1098 1099 1100 1101 1102 1105 1107 1108 1109 1111 1114 1117 1119 1121 1122 1125 1126 1127 1128 1130 1132 1133 1134 1137 1138 1143 1145 1147 1153 1156 1160 1161 1162 1164 1167 1170 1171 1172 1175 1176 1181 1183 1184 1185 1186 1187 1188 1191 1192 1193 1194 1196 1198 1200 1203 1204 1205 1206 1207 1208 1209 1211 1212 1217 1220 1221 1223 1225 1226 1228 1230 1231 1232 1235 1236 1238 1239 1246 1249 1250 1254 1255 1259 1260 1261 1263 1264 1267 1268 1269 1273 1276 1281 1284 1288 1289 1295 1296 1297 1304 1307 1311 1312 1318 1319 1320 1324 1327 1330 1334 1335 1341 1342 1343 1347 1349 1350 1353 1357 1358 1364 1365 1366 1370 1372 1373 1374 1376 1380 1381 1387 1388 1389 1393 1395 1396 1397 1400 1403 1404 1410 1411 1412 1416 1418 1419 1420 1423 1425 1426 1427 1433 1434 1435 1439 1441 1442 1443 1446 1448 1449 1456 1457 1458 1462 1464 1465 1466 1469 1471 1472 1474 1479 1480 1481 1485 1487 1488 1489 1492 1494 1495 1497 1499 1500 1502 1503 1504 1508 1510 1511 1512 1515 1517 1518 1520 1522 1523 1524 1525 1526 1527 1531 1533 1534 1535 1538 1540 1541 1543 1545 1546 1547 1548 1554 1556 1557 1558 1561 1563 1564 1566 1568 1569 1570 1571 1575 1577 1579 1580 1581 1584 1586 1587 1589 1591 1592 1593 1594 1598 1599 1602 1603 1604 1607 1609 1610 1612 1614 1615 1616 1617 1621 1622 1624 1625 1626 1627 1630 1632 1633 1635 1637 1638 1639 1640 1644 1645 1647 1648 1650 1653 1655 1656 1658 1660 1661 1662 1663 1667 1668 1670 1671 1673 1676 1678 1679 1681 1683 1684 1685 1686 1690 1691 1693 1694 1696 1699 1701 1703 1706 1707 1708 1709 1713 1714 1715 1717 1721 1723 1726 1727 1729 1732 1735 1737 1746 1747 1748 1753 1754 1755 1757 1758 1760 1761 1762 1763 1764 1765 1769 1770 1773 1777 1778 1781 1782 1783 1786 1788 1789 1791 1792 1793 1794 1795 1796 1798 1799 1802 1803 1805 1808 1810 1811 1813 1814 1815 1817 1818 1819 1820 1824 1825 1831 1833 1835 1837 1838 1839 1842 1843 1844 1845 1851 1853 1854 1856 1857 1859 1860 1861 1863 1864 1865 1866 1867 1869 1872 1876 1879 1880 1881 1885 1886 1888 1889 1891 1892 1893 1895 1896 1899 1902 1906 1909 1910 1912 1913 1914 1922 1925 1926 1927 1928 1929 1930 1931 1932 1934 1935 1937 1938 1940 1941 1942 1947 1951 1957 1958 1960 1961 1962 1963 1964 1965 1968 1969 1971 1972 1973 1975 1977 1981 1982 1984 1985 1986 1987 1988 1997 2000 0
x 1009 1014 1016 1017 1018 1019 1020 1021 1024 1025 1027 1029 1030 1031 1032 1034 1039 1041 1043 1045 1047 1051 1052 1054 1056 1059 1061 1064 1068 1069 1071 1072 1074 1077 1078 1081 1082 1084 1085 1087 1090 1092 1093 1094 1095 1096 1098 1099 1100 1101 1102 1103 1104 1107 1108 1109 1110 1113 1114 1116 1118 1119 1120 1124 1129 1130 1131 1132 1136 1137 1138 1142 1143 1144 1145 1146 1151 1152 1154 1155 1157 1159 1160 1161 1162 1163 1166 1167 1170 1171 1174 1178 1180 1181 1182 1183 1184 1185 1187 1190 1192 1195 1197 1199 1200 1203 1204 1206 1207 1208 1211 1215 1216 1217 1219 1220 1222 1224 1226 1227 1230 1231 1235 1237 1238 1239 1241 1245 1248 1254 1259 1260 1262 1265 1266 1267 1268 1272 1273 1274 1275 1280 1283 1287 1288 1294 1295 1296 1300 1303 1306 1310 1311 1317 1318 1319 1323 1325 1326 1329 1333 1334 1340 1341 1342 1346 1348 1349 1350 1352 1356 1357 1363 1364 1365 1369 1371 1372 1373 1379 1380 1386 1387 1388 1392 1394 1395 1396 1399 1402 1403 1409 1410 1411 1415 1417 1418 1419 1422 1424 1425 1426 1432 1433 1434 1438 1440 1441 1442 1445 1447 1448 1450 1455 1456 1457 1461 1463 1464 1465 1468 1470 1471 1473 1475 1478 1479 1480 1484 1486 1487 1488 1491 1493 1494 1496 1498 1499 1500 1501 1502 1503 1507 1509 1510 1511 1514 1516 1517 1519 1521 1522 1523 1524 1526 1530 1532 1533 1534 1537 1539 1540 1542 1544 1545 1546 1547 1553 1555 1556 1557 1560 1562 1563 1565 1567 1568 1569 1570 1574 1575 1576 1578 1579 1580 1583 1585 1586 1588 1590 1591 1592 1593 1597 1598 1600 1601 1602 1603 1606 1608 1609 1611 1613 1614 1615 1616 1620 1621 1623 1624 1626 1629 1631 1632 1634 1636 1637 1638 1639 1643 1644 1646 1647 1649 1652 1654 1655 1657 1659 1660 1661 1662 1666 1667 1669 1670 1672 1675 1677 1678 1680 1682 1683 1684 1685 1689 1690 1692 1693 1695 1698 1700 1701 1702 1703 1704 1705 1707 1708 1713 1714 1715 1719 1723 1727 1728 1729 1730 1731 1732 1734 1735 1738 1739 1741 1742 1743 1745 1746 1747 1748 1750 1752 1753 1754 1757 1761 1762 1766 1767 1771 1774 1776 1778 1782 1783 1784 1787 1788 1791 1792 1793 1794 1795 1796 1797 1798 1799 1800 1801 1802 1803 1806 1808 1809 1810 1813 1814 1815 1817 1821 1822 1824 1828 1830 1834 1835 1837 1838 1839 1840 1841 1846 1847 1849 1857 1858 1859 1860 1865 1866 1867 1872 1874 1876 1879 1882 1883 1884 1886 1888 1890 1891 1893 1894 1895 1896 1898 1899 1900 1901 1902 1903 1904 1905 1906 1918 1919 1923 1925 1929 1931 1932 1934 1935 1936 1937 1939 1943 1947 1948 1952 1953 1956 1957 1958 1960 1962 1964 1966 1967 1969 1970 1972 1973 1974 1975 1976 1977 1986 1989 1990 1991 1992 1995 1996 1999 2000 0
x 1009 1012 1013 1014 1015 1016 1018 1020 1021 1022 1023 1026 1028 1030 1033 1037 1040 1044 1045 1046 1048 1049 1050 1053 1055 1057 1060 1063 1068 1069 1070 1072 1073 1074 1075 1076 1077 1080 1082 1083 1084 1086 1089 1092 1094 1096 1097 1100 1101 1102 1103 1105 1107 1108 1109 1112 1113 1118 1120 1122 1128 1131 1135 1136 1137 1139 1142 1145 1146 1147 1150 1151 1156 1158 1159 1160 1161 1162 1163 1166 1167 1168 1169 1171 1173 1175 1178 1179 1180 1181 1182 1183 1184 1186 1187 1192 1195 1196 1198 1200 1201 1203 1205 1206 1207 1210 1211 1213 1214 1221 1224 1225 1229 1230 1234 1235 1236 1238 1239 1242 1243 1244 1248 1253 1258 1263 1265 1273 1274 1275 1279 1282 1286 1287 1293 1294 1295 1299 1302 1305 1309 1310 1316 1317 1318 1322 1324 1325 1328 1332 1333 1339 1340 1341 1345 1347 1348 1349 1351 1355 1356 1362 1363 1364 1368 1370 1371 1372 1375 1378 1379 1385 1386 1387 1391 1393 1394 1395 1398 1400 1401 1402 1408 1409 1410 1414 1416 1417 1418 1421 1423 1424 1431 1432 1433 1437 1439 1440 1441 1444 1446 1447 1449 1454 1455 1456 1460 1462 1463 1464 1467 1469 1470 1472 1474 1475 1477 1478 1479 1483 1485 1486 1487 1490 1492 1493 1495 1497 1498 1499 1500 1501 1502 1506 1508 1509 1510 1513 1515 1516 1518 1520 1521 1522 1523 1529 1531 1532 1533 1536 1538 1539 1541 1543 1544 1545 1546 1550 1552 1554 1555 1556 1559 1561 1562 1564 1566 1567 1568 1569 1573 1574 1577 1578 1579 1582 1584 1585 1587 1589 1590 1591 1592 1596 1597 1599 1600 1601 1602 1605 1607 1608 1610 1612 1613 1614 1615 1619 1620 1622 1623 1625 1628 1630 1631 1633 1635 1636 1637 1638 1642 1643 1645 1646 1648 1651 1653 1654 1656 1658 1659 1660 1661 1665 1666 1668 1669 1671 1674 1676 1677 1679 1681 1682 1683 1684 1688 1689 1691 1692 1694 1697 1699 1700 1701 1709 1714 1715 1716 1719 1720 1722 1725 1727 1729 1730 1731 1733 1740 1747 1748 1749 1750 1752 1757 1759 1761 1762 1763 1764 1765 1766 1773 1775 1776 1777 1779 1780 1781 1782 1784 1788 1792 1794 1795 1798 1801 1803 1804 1805 1807 1808 1810 1812 1813 1816 1817 1818 1820 1822 1823 1824 1825 1826 1827 1828 1829 1832 1834 1835 1837 1847 1851 1852 1855 1857 1860 1862 1864 1866 1867 1868 1870 1872 1873 1875 1877 1883 1886 1887 1888 1893 1896 1897 1901 1902 1903 1904 1906 1908 1911 1912 1914 1915 1916 1917 1920 1921 1922 1923 1928 1929 1931 1932 1933 1935 1937 1940 1943 1945 1946 1947 1949 1950 1951 1954 1957 1958 1959 1960 1964 1969 1970 1971 1972 1973 1976 1977 1978 1980 1982 1984 1987 1989 1991 1992 1994 1995 1997 2000 0
x 1004 1011 1013 1014 1015 1016 1017 1018 1020 1023 1025 1027 1028 1032 1033 1035 1036 1037 1039 1044 1045 1047 1048 1050 1052 1053 1056 1057 1059 1060 1062 1065 1067 1068 1069 1070 1071 1073 1074 1075 1076 1077 1078 1079 1082 1083 1084 1085 1088 1089 1091 1093 1094 1095 1099 1104 1105 1106 1107 1111 1112 1113 1117 1118 1119 1120 1121 1126 1127 1129 1130 1132 1134 1135 1136 1137 1138 1141 1142 1145 1146 1149 1153 1155 1156 1157 1158 1159 1160 1162 1165 1167 1170 1172 1174 1175 1178 1179 1181 1182 1183 1186 1190 1191 1192 1194 1195 1197 1199 1201 1202 1205 1206 1210 1212 1213 1214 1216 1220 1223 1229 1234 1235 1237 1240 1241 1242 1243 1247 1248 1249 1250 1278 1281 1285 1286 1292 1293 1294 1298 1300 1301 1304 1308 1309 1315 1316 1317 1321 1323 1324 1325 1327 1331 1332 1338 1339 1340 1344 1346 1347 1348 1354 1355 1361 1362 1363 1367 1369 1370 1371 1374 1377 1378 1384 1385 1386 1390 1392 1393 1394 1397 1399 1400 1401 1407 1408 1409 1413 1415 1416 1417 1420 1422 1423 1425 1430 1431 1432 1436 1438 1439 1440 1443 1445 1446 1448 1450 1453 1454 1455 1459 1461 1462 1463 1466 1468 1469 1471 1473 1474 1475 1476 1477 1478 1482 1484 1485 1486 1489 1491 1492 1494 1496 1497 1498 1499 1501 1505 1507 1508 1509 1512 1514 1515 1517 1519 1520 1521 1522 1528 1530 1531 1532 1535 1537 1538 1540 1542 1543 1544 1545 1549 1550 1551 1553 1554 1555 1558 1560 1561 1563 1565 1566 1567 1568 1572 1573 1575 1576 1577 1578 1581 1583 1584 1586 1588 1589 1590 1591 1595 1596 1598 1599 1601 1604 1606 1607 1609 1611 1612 1613 1614 1618 1619 1621 1622 1624 1627 1629 1630 1632 1634 1635 1636 1637 1641 1642 1644 1645 1647 1650 1652 1653 1655 1657 1658 1659 1660 1664 1665 1667 1668 1670 1673 1675 1676 1678 1680 1681 1682 1683 1687 1688 1690 1691 1693 1696 1698 1699 1700 1702 1703 1705 1708 1711 1713 1722 1723 1724 1725 1730 1731 1732 1734 1735 1737 1738 1739 1740 1741 1742 1746 1748 1751 1755 1756 1759 1760 1761 1764 1766 1767 1769 1770 1771 1772 1773 1774 1775 1777 1778 1781 1782 1784 1787 1789 1791 1793 1794 1795 1797 1798 1799 1800 1804 1805 1810 1812 1814 1816 1818 1819 1820 1823 1824 1825 1826 1829 1833 1835 1836 1838 1839 1841 1842 1843 1845 1846 1848 1849 1850 1852 1855 1859 1862 1863 1864 1865 1869 1870 1872 1873 1875 1876 1877 1879 1881 1884 1887 1891 1894 1895 1896 1898 1899 1900 1908 1912 1913 1914 1915 1916 1917 1918 1919 1921 1922 1923 1925 1926 1928 1929 1930 1934 1936 1940 1945 1947 1948 1950 1951 1952 1953 1954 1955 1956 1959 1960 1962 1963 1965 1967 1969 1972 1974 1975 1977 1978 1980 1981 1982 1985 1993 1994 1998 0
x -1009 1010 1012 1013 1019 1020 1022 1025 1027 1031 1032 1033 1035 1037 1038 1039 1042 1043 1044 1045 1048 1051 1052 1055 1057 1058 1059 1061 1064 1067 1069 1071 1072 1075 1076 1077 1078 1080 1082 1083 1084 1087 1088 1093 1095 1097 1103 1106 1110 1111 1112 1114 1117 1120 1121 1122 1125 1126 1131 1133 1134 1135 1136 1137 1138 1141 1142 1143 1144 1146 1148 1150 1153 1154 1155 1156 1157 1158 1159 1161 1162 1167 1170 1171 1173 1175 1176 1178 1180 1181 1182 1185 1186 1188 1189 1196 1199 1200 1204 1205 1209 1210 1211 1213 1214 1217 1218 1219 1223 1228 1233 1238 1240 1248 1249 1250 1258 1260 1262 1263 1265 1266 1270 1271 1275 1277 1280 1284 1285 1291 1292 1293 1297 1299 1300 1303 1307 1308 1314 1315 1316 1320 1322 1323 1324 1326 1330 1331 1337 1338 1339 1343 1345 1346 1347 1350 1353 1354 1360 1361 1362 1366 1368 1369 1370 1373 1375 1376 1377 1383 1384 1385 1389 1391 1392 1393 1396 1398 1399 1406 1407 1408 1412 1414 1415 1416 1419 1421 1422 1424 1429 1430 1431 1435 1437 1438 1439 1442 1444 1445 1447 1449 1450 1452 1453 1454 1458 1460 1461 1462 1465 1467 1468 1470 1472 1473 1474 1475 1476 1477 1481 1483 1484 1485 1488 1490 1491 1493 1495 1496 1497 1498 1504 1506 1507 1508 1511 1513 1514 1516 1518 1519 1520 1521 1525 1527 1529 1530 1531 1534 1536 1537 1539 1541 1542 1543 1544 1548 1549 1552 1553 1554 1557 1559 1560 1562 1564 1565 1566 1567 1571 1572 1574 1575 1576 1577 1580 1582 1583 1585 1587 1588 1589 1590 1594 1595 1597 1598 1600 1603 1605 1606 1608 1610 1611 1612 1613 1617 1618 1620 1621 1623 1626 1628 1629 1631 1633 1634 1635 1636 1640 1641 1643 1644 1646 1649 1651 1652 1654 1656 1657 1658 1659 1663 1664 1666 1667 1669 1672 1674 1675 1677 1679 1680 1681 1682 1686 1687 1689 1690 1692 1695 1697 1698 1699 1703 1704 1705 1706 1707 1708 1710 1711 1714 1715 1717 1718 1719 1721 1722 1723 1724 1725 1727 1729 1730 1731 1734 1738 1739 1743 1744 1747 1749 1752 1754 1756 1760 1761 1762 1765 1766 1769 1770 1771 1772 1773 1774 1775 1776 1777 1778 1779 1780 1781 1782 1785 1787 1788 1789 1793 1794 1795 1797 1801 1802 1804 1808 1810 1811 1815 1816 1818 1819 1820 1821 1822 1827 1828 1829 1831 1839 1840 1841 1842 1848 1849 1850 1855 1857 1859 1862 1864 1866 1867 1868 1870 1872 1874 1875 1877 1878 1879 1880 1881 1883 1884 1885 1886 1887 1888 1889 1890 1891 1904 1905 1909 1910 1912 1916 1918 1919 1921 1922 1923 1924 1925 1927 1931 1936 1937 1941 1942 1946 1947 1948 1950 1952 1954 1957 1958 1960 1961 1963 1965 1966 1967 1968 1969 1980 1983 1984 1986 1987 1991 1992 1996 1997 1998 1999 0
x 1011 1012 1013 1014 1015 1016 1017 1019 1020 1025 1027 1029 1030 1032 1034 1035 1036 1037 1042 1043 1044 1045 1046 1049 1050 1051 1052 1053 1054 1057 1058 1059 1060 1063 1064 1066 1068 1069 1070 1074 1079 1080 1081 1082 1086 1087 1088 1092 1093 1094 1095 1096 1101 1102 1104 1105 1107 1109 1110 1111 1112 1113 1116 1117 1120 1121 1124 1128 1130 1131 1132 1133 1134 1135 1137 1140 1142 1145 1147 1149 1150 1153 1154 1156 1157 1158 1161 1165 1166 1167 1169 1170 1172 1174 1176 1177 1180 1181 1185 1187 1188 1189 1191 1195 1198 1204 1209 1210 1212 1215 1216 1217 1218 1222 1223 1224 1225 1251 1256 1257 1259 1262 1263 1264 1265 1269 1270 1271 1272 1273 1276 1279 1283 1284 1290 1291 1292 1296 1298 1299 1300 1302 1306 1307 1313 1314 1315 1319 1321 1322 1323 1329 1330 1336 1337 1338 1342 1344 1345 1346 1349 1352 1353 1359 1360 1361 1365 1367 1368 1369 1372 1374 1375 1376 1382 1383 1384 1388 1390 1391 1392 1395 1397 1398 1400 1405 1406 1407 1411 1413 1414 1415 1418 1420 1421 1423 1425 1428 1429 1430 1434 1436 1437 1438 1441 1443 1444 1446 1448 1449 1450 1451 1452 1453 1457 1459 1460 1461 1464 1466 1467 1469 1471 1472 1473 1474 1476 1480 1482 1483 1484 1487 1489 1490 1492 1494 1495 1496 1497 1503 1505 1506 1507 1510 1512 1513 1515 1517 1518 1519 1520 1524 1525 1526 1528 1529 1530 1533 1535 1536 1538 1540 1541 1542 1543 1547 1548 1550 1551 1552 1553 1556 1558 1559 1561 1563 1564 1565 1566 1570 1571 1573 1574 1576 1579 1581 1582 1584 1586 1587 1588 1589 1593 1594 1596 1597 1599 1602 1604 1605 1607 1609 1610 1611 1612 1616 1617 1619 1620 1622 1625 1627 1628 1630 1632 1633 1634 1635 1639 1640 1642 1643 1645 1648 1650 1651 1653 1655 1656 1657 1658 1662 1663 1665 1666 1668 1671 1673 1674 1675 1676 1678 1679 1680 1681 1685 1686 1688 1689 1691 1694 1696 1697 1698 1701 1703 1705 1706 1707 1709 1716 1723 1724 1725 1726 1727 1729 1734 1736 1738 1739 1740 1741 1742 1743 1751 1753 1754 1755 1757 1758 1759 1760 1762 1766 1769 1771 1773 1774 1777 1780 1782 1783 1784 1786 1787 1789 1790 1792 1793 1796 1797 1798 1800 1802 1803 1804 1805 1806 1807 1808 1809 1810 1813 1815 1816 1818 1828 1829 1833 1834 1837 1839 1842 1844 1846 1849 1850 1851 1853 1855 1856 1858 1860 1864 1867 1870 1871 1872 1877 1880 1881 1882 1886 1887 1888 1889 1891 1893 1897 1898 1900 1901 1902 1903 1906 1907 1908 1910 1915 1916 1918 1919 1920 1923 1925 1928 1931 1933 1934 1935 1936 1938 1939 1940 1943 1947 1948 1949 1950 1954 1955 1960 1961 1962 1963 1964 1965 1968 1969 1970 1973 1975 1977 1979 1981 1983 1985 1986 1987 1989 1991 1993 1994 1998 0
x 1010 1012 1013 1014 1019 1020 1021 1024 1025 1026 1027 1028 1029 1030 1031 1035 1036 1041 1042 1044 1048 1049 1051 1052 1053 1055 1057 1058 1059 1062 1063 1068 1070 1072 1078 1081 1085 1086 1087 1089 1092 1095 1096 1097 1100 1101 1106 1108 1109 1110 1111 1112 1113 1116 1117 1118 1119 1121 1123 1125 1128 1129 1130 1131 1132 1133 1134 1136 1137 1142 1145 1146 1148 1150 1151 1153 1155 1156 1157 1160 1161 1163 1164 1171 1174 1175 1179 1180 1184 1185 1186 1188 1189 1192 1193 1194 1198 1203 1208 1213 1215 1223 1224 1225 1233 1235 1237 1238 1240 1241 1245 1246 1250 1255 1256 1257 1258 1259 1263 1265 1268 1271 1272 1274 1278 1282 1283 1289 1290 1291 1295 1297 1298 1299 1301 1305 1306 1312 1313 1314 1318 1320 1321 1322 1325 1328 1329 1335 1336 1337 1341 1343 1344 1345 1348 1350 1351 1352 1358 1359 1360 1364 1366 1367 1368 1371 1373 1374 1381 1382 1383 1387 1389 1390 1391 1394 1396 1397 1399 1404 1405 1406 1410 1412 1413 1414 1417 1419 1420 1422 1424 1425 1427 1428 1429 1433 1435 1436 1437 1440 1442 1443 1445 1447 1448 1449 1450 1451 1452 1456 1458 1459 1460 1463 1465 1466 1468 1470 1471 1472 1473 1479 1481 1482 1483 1486 1488 1489 1491 1493 1494 1495 1496 1500 1502 1504 1505 1506 1509 1511 1512 1514 1516 1517 1518 1519 1523 1524 1527 1528 1529 1532 1534 1535 1537 1539 1540 1541 1542 1546 1547 1549 1550 1551 1552 1555 1557 1558 1560 1562 1563 1564 1565 1569 1570 1572 1573 1575 1578 1580 1581 1583 1585 1586 1587 1588 1592 1593 1595 1596 1598 1601 1603 1604 1606 1608 1609 1610 1611 1615 1616 1618 1619 1621 1624 1626 1627 1629 1631 1632 1633 1634 1638 1639 1641 1642 1644 1647 1649 1650 1652 1654 1655 1656 1657 1661 1662 1664 1665 1667 1670 1672 1673 1674 1677 1678 1679 1680 1684 1685 1687 1688 1690 1693 1695 1696 1697 1700 1701 1706 1707 1708 1710 1711 1713 1714 1715 1716 1717 1718 1722 1725 1728 1732 1733 1736 1737 1738 1741 1743 1744 1746 1748 1749 1750 1751 1752 1753 1755 1756 1759 1760 1762 1765 1767 1770 1772 1773 1774 1776 1777 1778 1779 1783 1784 1789 1790 1792 1794 1796 1798 1799 1800 1803 1804 1805 1806 1809 1814 1816 1817 1819 1820 1822 1823 1824 1826 1827 1829 1830 1831 1832 1834 1837 1841 1844 1845 1846 1848 1852 1853 1855 1856 1858 1859 1860 1862 1864 1865 1868 1871 1875 1878 1879 1881 1883 1884 1885 1893 1898 1899 1900 1901 1902 1903 1904 1905 1907 1908 1910 1912 1913 1915 1916 1917 1921 1924 1928 1933 1934 1936 1937 1939 1940 1941 1942 1943 1944 1945 1946 1949 1950 1952 1953 1956 1958 1960 1963 1966 1967 1969 1970 1973 1974 1975 1978 1979 1985 1988 1989 1990 1994 1995 1997 0
x 1003 1011 1012 1014 1015 1016 1019 1023 1024 1025 1028 1029 1032 1033 1036 1037 1038 1040 1041 1043 1046 1047 1048 1050 1054 1055 1056 1057 1061 1062 1063 1067 1068 1069 1070 1071 1076 1077 1079 1080 1082 1084 1085 1086 1087 1088 1091 1092 1095 1096 1099 1103 1105 1106 1107 1108 1109 1110 1112 1115 1117 1120 1122 1124 1125 1128 1129 1131 1132 1133 1136 1140 1141 1142 1144 1145 1147 1149 1151 1152 1155 1156 1160 1162 1163 1164 1166 1170 1173 1179 1184 1185 1187 1190 1191 1192 1193 1197 1198 1199 1200 1226 1231 1232 1234 1237 1238 1239 1240 1244 1245 1246 1247 1248 1254 1256 1257 1258 1260 1264 1267 1272 1274 1275 1277 1281 1282 1288 1289 1290 1294 1296 1297 1298 1304 1305 1311 1312 1313 1317 1319 1320 1321 1324 1327 1328 1334 1335 1336 1340 1342 1343 1344 1347 1349 1350 1351 1357 1358 1359 1363 1365 1366 1367 1370 1372 1373 1375 1380 1381 1382 1386 1388 1389 1390 1393 1395 1396 1398 1400 1403 1404 1405 1409 1411 1412 1413 1416 1418 1419 1421 1423 1424 1425 1426 1427 1428 1432 1434 1435 1436 1439 1441 1442 1444 1446 1447 1448 1449 1451 1455 1457 1458 1459 1462 1464 1465 1467 1469 1470 1471 1472 1478 1480 1481 1482 1485 1487 1488 1490 1492 1493 1494 1495 1499 1500 1501 1503 1504 1505 1508 1510 1511 1513 1515 1516 1517 1518 1522 1523 1525 1526 1527 1528 1531 1533 1534 1536 1538 1539 1540 1541 1545 1546 1548 1549 1551 1554 1556 1557 1559 1561 1562 1563 1564 1568 1569 1571 1572 1574 1577 1579 1580 1582 1584 1585 1586 1587 1591 1592 1594 1595 1597 1600 1602 1603 1605 1607 1608 1609 1610 1614 1615 1617 1618 1620 1623 1625 1626 1628 1630 1631 1632 1633 1637 1638 1640 1641 1643 1646 1648 1649 1650 1651 1653 1654 1655 1656 1660 1661 1663 1664 1666 1669 1671 1672 1673 1676 1677 1678 1679 1683 1684 1686 1687 1689 1692 1694 1695 1696 1699 1700 1701 1703 1705 1706 1707 1710 1714 1715 1719 1720 1723 1724 1726 1729 1731 1733 1737 1738 1739 1742 1743 1746 1747 1748 1749 1750 1751 1752 1753 1754 1755 1756 1757 1758 1759 1760 1763 1765 1766 1767 1769 1772 1773 1774 1776 1780 1781 1783 1787 1789 1791 1795 1796 1798 1799 1800 1801 1802 1807 1808 1809 1812 1820 1821 1822 1823 1829 1830 1831 1832 1837 1839 1841 1844 1846 1847 1849 1850 1851 1853 1855 1857 1858 1860 1861 1862 1863 1864 1865 1867 1868 1869 1870 1871 1872 1873 1874 1875 1880 1889 1890 1894 1895 1896 1898 1902 1904 1905 1907 1908 1910 1911 1912 1914 1918 1924 1925 1929 1930 1934 1935 1936 1937 1939 1941 1943 1945 1947 1948 1950 1951 1953 1955 1956 1957 1958 1959 1960 1973 1976 1977 1980 1981 1985 1986 1987 1990 1992 1993 1995 1996 0
x -1010 1011 1012 1014 1016 1018 1019 1023 1024 1025 1026 1029 1030 1039 1043 1050 1053 1056 1060 1061 1062 1064 1067 1070 1071 1072 1075 1076 1081 1083 1084 1085 1086 1087 1088 1091 1092 1093 1094 1096 1098 1100 1103 1104 1105 1106 1107 1108 1109 1111 1112 1117 1120 1121 1123 1125 1126 1128 1130 1131 1132 1135 1136 1138 1139 1146 1149 1150 1154 1155 1159 1160 1161 1163 1164 1167 1168 1169 1173 1178 1183 1188 1190 1198 1199 1200 1208 1210 1212 1213 1215 1216 1220 1221 1225 1230 1231 1232 1233 1234 1238 1240 1243 1246 1247 1249 1253 1255 1257 1258 1259 1260 1261 1264 1266 1268 1269 1271 1276 1280 1281 1287 1288 1289 1293 1295 1296 1297 1300 1303 1304 1310 1311 1312 1316 1318 1319 1320 1323 1325 1326 1327 1333 1334 1335 1339 1341 1342 1343 1346 1348 1349 1356 1357 1358 1362 1364 1365 1366 1369 1371 1372 1374 1379 1380 1381 1385 1387 1388 1389 1392 1394 1395 1397 1399 1400 1402 1403 1404 1408 1410 1411 1412 1415 1417 1418 1420 1422 1423 1424 1425 1426 1427 1431 1433 1434 1435 1438 1440 1441 1443 1445 1446 1447 1448 1454 1456 1457 1458 1461 1463 1464 1466 1468 1469 1470 1471 1475 1477 1479 1480 1481 1484 1486 1487 1489 1491 1492 1493 1494 1498 1499 1502 1503 1504 1507 1509 1510 1512 1514 1515 1516 1517 1521 1522 1524 1525 1526 1527 1530 1532 1533 1535 1537 1538 1539 1540 1544 1545 1547 1548 1550 1553 1555 1556 1558 1560 1561 1562 1563 1567 1568 1570 1571 1573 1576 1578 1579 1581 1583 1584 1585 1586 1590 1591 1593 1594 1596 1599 1601 1602 1604 1606 1607 1608 1609 1613 1614 1616 1617 1619 1622 1624 1625 1627 1629 1630 1631 1632 1636 1637 1639 1640 1642 1645 1647 1648 1649 1652 1653 1654 1655 1659 1660 1662 1663 1665 1668 1670 1671 1672 1675 1676 1677 1678 1682 1683 1685 1686 1688 1691 1693 1694 1695 1698 1699 1701 1702 1703 1705 1710 1712 1714 1715 1716 1717 1718 1719 1728 1730 1731 1732 1734 1735 1736 1737 1739 1743 1746 1749 1751 1752 1755 1758 1760 1761 1762 1764 1765 1767 1768 1771 1772 1775 1776 1777 1779 1781 1782 1783 1784 1785 1786 1787 1788 1789 1790 1793 1795 1796 1798 1808 1809 1814 1815 1818 1820 1823 1825 1827 1831 1832 1833 1835 1837 1838 1840 1842 1846 1847 1850 1853 1854 1855 1860 1863 1864 1865 1866 1870 1871 1872 1873 1875 1877 1880 1882 1883 1885 1886 1887 1888 1891 1892 1893 1896 1901 1902 1904 1905 1906 1909 1910 1912 1915 1918 1920 1921 1923 1924 1926 1927 1928 1931 1934 1936 1937 1938 1939 1943 1944 1950 1951 1952 1953 1954 1956 1959 1960 1961 1964 1965 1967 1969 1971 1974 1976 1978 1980 1981 1983 1985 1986 1988 1989 1990 1994 1995 2000 0
x 1009 1011 1013 1014 1015 1018 1019 1021 1022 1027 1029 1032 1034 1035 1036 1038 1040 1041 1046 1047 1049 1050 1051 1052 1054 1055 1057 1059 1060 1061 1062 1063 1066 1067 1070 1071 1074 1078 1080 1081 1082 1083 1084 1085 1087 1090 1092 1095 1097 1099 1100 1103 1104 1106 1107 1108 1111 1115 1116 1117 1119 1120 1122 1124 1126 1127 1130 1131 1135 1137 1138 1139 1141 1145 1148 1154 1159 1160 1162 1165 1166 1167 1168 1172 1173 1174 1175 1201 1206 1207 1209 1212 1213 1214 1215 1219 1220 1221 1222 1223 1229 1231 1232 1233 1235 1239 1242 1247 1249 1250 1252 1256 1257 1258 1260 1261 1263 1265 1267 1268 1269 1271 1272 1273 1275 1279 1280 1286 1287 1288 1292 1294 1295 1296 1299 1302 1303 1309 1310 1311 1315 1317 1318 1319 1322 1324 1325 1326 1332 1333 1334 1338 1340 1341 1342 1345 1347 1348 1350 1355 1356 1357 1361 1363 1364 1365 1368 1370 1371 1373 1375 1378 1379 1380 1384 1386 1387 1388 1391 1393 1394 1396 1398 1399 1400 1401 1402 1403 1407 1409 1410 1411 1414 1416 1417 1419 1421 1422 1423 1424 1426 1430 1432 1433 1434 1437 1439 1440 1442 1444 1445 1446 1447 1453 1455 1456 1457 1460 1462 1463 1465 1467 1468 1469 1470 1474 1475 1476 1478 1479 1480 1483 1485 1486 1488 1490 1491 1492 1493 1497 1498 1500 1501 1502 1503 1506 1508 1509 1511 1513 1514 1515 1516 1520 1521 1523 1524 1526 1529 1531 1532 1534 1536 1537 1538 1539 1543 1544 1546 1547 1549 1552 1554 1555 1557 1559 1560 1561 1562 1566 1567 1569 1570 1572 1575 1577 1578 1580 1582 1583 1584 1585 1589 1590 1592 1593 1595 1598 1600 1601 1603 1605 1606 1607 1608 1612 1613 1615 1616 1618 1621 1623 1624 1625 1626 1628 1629 1630 1631 1635 1636 1638 1639 1641 1644 1646 1647 1648 1651 1652 1653 1654 1658 1659 1661 1662 1664 1667 1669 1670 1671 1674 1675 1676 1677 1681 1682 1684 1685 1687 1690 1692 1693 1694 1697 1698 1701 1704 1708 1709 1712 1713 1714 1717 1719 1720 1722 1724 1725 1726 1727 1728 1729 1730 1732 1733 1736 1737 1739 1742 1744 1748 1750 1751 1752 1754 1755 1756 1757 1761 1762 1767 1768 1769 1771 1773 1775 1777 1778 1779 1782 1783 1784 1785 1788 1790 1794 1796 1797 1799 1800 1802 1803 1804 1806 1807 1809 1810 1811 1812 1813 1815 1818 1822 1825 1826 1827 1829 1830 1834 1835 1837 1838 1840 1841 1842 1844 1846 1848 1851 1854 1858 1861 1862 1865 1867 1868 1869 1877 1880 1883 1884 1885 1886 1887 1888 1889 1890 1892 1893 1895 1896 1898 1899 1901 1902 1903 1907 1909 1911 1915 1920 1921 1922 1924 1925 1927 1928 1929 1930 1931 1932 1933 1934 1935 1938 1939 1941 1942 1945 1946 1948 1950 1953 1955 1957 1958 1960 1961 1964 1965 1966 1967 1970 1971 1972 1978 1979 1982 1983 1984 1985 1989 1991 1993 1999 2000 0
x 1011 1012 1015 1018 1019 1022 1023 1025 1026 1027 1028 1029 1030 1031 1032 1033 1034 1035 1036 1039 1040 1041 1042 1043 1049 1051 1056 1058 1059 1060 1061 1062 1063 1066 1067 1068 1069 1071 1073 1075 1078 1079 1080 1081 1082 1083 1084 1086 1087 1092 1095 1096 1098 1100 1101 1103 1105 1106 1107 1110 1111 1113 1114 1121 1124 1125 1129 1130 1134 1135 1136 1138 1139 1142 1143 1144 1148 1153 1158 1163 1165 1173 1174 1175 1183 1185 1187 1188 1190 1191 1195 1196 1200 1205 1206 1207 1208 1209 1213 1215 1218 1221 1222 1224 1228 1230 1232 1233 1234 1235 1236 1239 1241 1243 1244 1246 1251 1256 1263 1264 1266 1270 1271 1273 1275 1278 1279 1285 1286 1287 1291 1293 1294 1295 1298 1300 1301 1302 1308 1309 1310 1314 1316 1317 1318 1321 1323 1324 1331 1332 1333 1337 1339 1340 1341 1344 1346 1347 1349 1354 1355 1356 1360 1362 1363 1364 1367 1369 1370 1372 1374 1375 1377 1378 1379 1383 1385 1386 1387 1390 1392 1393 1395 1397 1398 1399 1400 1401 1402 1406 1408 1409 1410 1413 1415 1416 1418 1420 1421 1422 1423 1429 1431 1432 1433 1436 1438 1439 1441 1443 1444 1445 1446 1450 1452 1454 1455 1456 1459 1461 1462 1464 1466 1467 1468 1469 1473 1474 1477 1478 1479 1482 1484 1485 1487 1489 1490 1491 1492 1496 1497 1499 1500 1501 1502 1505 1507 1508 1510 1512 1513 1514 1515 1519 1520 1522 1523 1525 1528 1530 1531 1533 1535 1536 1537 1538 1542 1543 1545 1546 1548 1551 1553 1554 1556 1558 1559 1560 1561 1565 1566 1568 1569 1571 1574 1576 1577 1579 1581 1582 1583 1584 1588 1589 1591 1592 1594 1597 1599 1600 1602 1604 1605 1606 1607 1611 1612 1614 1615 1617 1620 1622 1623 1624 1627 1628 1629 1630 1634 1635 1637 1638 1640 1643 1645 1646 1647 1650 1651 1652 1653 1657 1658 1660 1661 1663 1666 1668 1669 1670 1673 1674 1676 1680 1681 1683 1684 1686 1689 1691 1692 1693 1696 1697 1702 1705 1707 1709 1713 1714 1715 1718 1719 1722 1723 1724 1725 1726 1727 1728 1729 1730 1731 1732 1733 1734 1735 1736 1737 1740 1742 1743 1744 1746 1747 1750 1751 1752 1754 1758 1759 1761 1765 1767 1770 1774 1775 1777 1778 1779 1780 1781 1786 1787 1788 1792 1800 1801 1802 1803 1809 1811 1812 1813 1818 1820 1822 1825 1827 1828 1831 1832 1833 1835 1837 1839 1840 1842 1843 1844 1845 1846 1848 1850 1851 1852 1853 1854 1855 1856 1857 1858 1863 1864 1873 1874 1878 1879 1880 1881 1883 1887 1889 1890 1892 1893 1896 1897 1898 1900 1904 1911 1912 1916 1917 1921 1922 1923 1924 1925 1927 1929 1931 1933 1936 1937 1939 1940 1942 1944 1945 1946 1947 1948 1949 1950 1964 1965 1968 1969 1973 1974 1978 1979 1980 1981 1984 1985 1987 1988 1990 1991 1992 1997 2000 0
x -1002 1009 1010 1013 1014 1018 1020 1021 1022 1024 1026 1036 1038 1039 1040 1042 1043 1044 1047 1049 1053 1055 1056 1057 1058 1059 1060 1062 1065 1067 1070 1072 1074 1075 1078 1079 1081 1082 1083 1086 1090 1091 1092 1094 1095 1097 1099 1101 1102 1105 1106 1110 1112 1113 1114 1116 1120 1123 1129 1134 1135 1137 1140 1141 1142 1143 1147 1148 1149 1150 1176 1181 1182 1184 1187 1188 1189 1190 1194 1195 1196 1197 1198 1204 1206 1207 1208 1210 1214 1217 1222 1224 1225 1227 1231 1232 1233 1235 1236 1238 1240 1242 1243 1244 1246 1247 1248 1250 1253 1255 1258 1260 1262 1263 1265 1268 1271 1277 1278 1284 1285 1286 1290 1292 1293 1294 1297 1299 1300 1301 1307 1308 1309 1313 1315 1316 1317 1320 1322 1323 1325 1330 1331 1332 1336 1338 1339 1340 1343 1345 1346 1348 1350 1353 1354 1355 1359 1361 1362 1363 1366 1368 1369 1371 1373 1374 1375 1376 1377 1378 1382 1384 1385 1386 1389 1391 1392 1394 1396 1397 1398 1399 1401 1405 1407 1408 1409 1412 1414 1415 1417 1419 1420 1421 1422 1428 1430 1431 1432 1435 1437 1438 1440 1442 1443 1444 1445 1449 1450 1451 1453 1454 1455 1458 1460 1461 1463 1465 1466 1467 1468 1472 1473 1475 1476 1477 1478 1481 1483 1484 1486 1488 1489 1490 1491 1495 1496 1498 1499 1501 1504 1506 1507 1509 1511 1512 1513 1514 1518 1519 1521 1522 1524 1527 1529 1530 1532 1534 1535 1536 1537 1541 1542 1544 1545 1547 1550 1552 1553 1555 1557 1558 1559 1560 1564 1565 1567 1568 1570 1573 1575 1576 1578 1580 1581 1582 1583 1587 1588 1590 1591 1593 1596 1598 1599 1600 1601 1603 1604 1605 1606 1610 1611 1613 1614 1616 1619 1621 1622 1623 1626 1627 1628 1629 1633 1634 1636 1637 1639 1642 1644 1645 1646 1649 1650 1651 1652 1656 1657 1659 1660 1662 1665 1667 1668 1669 1672 1673 1679 1680 1682 1683 1685 1688 1690 1691 1692 1695 1696 1700 1704 1706 1707 1708 1710 1711 1712 1713 1715 1719 1722 1724 1726 1728 1729 1732 1735 1737 1738 1739 1741 1742 1744 1745 1749 1750 1753 1754 1755 1757 1759 1760 1761 1762 1763 1764 1765 1766 1767 1768 1769 1772 1774 1775 1777 1787 1788 1790 1794 1795 1798 1800 1803 1805 1807 1812 1813 1814 1816 1818 1819 1821 1823 1827 1828 1829 1832 1835 1836 1837 1842 1845 1846 1848 1849 1853 1854 1855 1856 1858 1860 1863 1866 1867 1869 1870 1871 1872 1875 1876 1877 1881 1886 1887 1889 1890 1891 1894 1895 1896 1898 1901 1904 1906 1907 1909 1910 1911 1913 1914 1915 1918 1921 1922 1924 1925 1926 1927 1931 1932 1939 1940 1941 1942 1943 1946 1949 1950 1951 1954 1956 1958 1960 1962 1964 1966 1968 1970 1972 1973 1974 1976 1978 1979 1980 1982 1983 1984 1989 1991 1994 1998 0
x -1009 1010 1011 1012 1013 1014 1015 1017 1018 1019 1021 1022 1027 1029 1030 1031 1032 1033 1035 1037 1038 1040 1041 1042 1043 1047 1048 1053 1054 1055 1056 1057 1058 1059 1061 1062 1067 1070 1071 1073 1075 1076 1078 1080 1081 1082 1085 1086 1088 1089 1096 1099 1100 1104 1105 1109 1110 1111 1113 1114 1117 1118 1119 1123 1128 1133 1138 1140 1148 1149 1150 1158 1160 1162 1163 1165 1166 1170 1171 1175 1180 1181 1182 1183 1184 1188 1190 1193 1196 1197 1199 1203 1205 1207 1208 1209 1210 1211 1214 1216 1218 1219 1221 1226 1231 1238 1239 1241 1245 1246 1248 1250 1252 1256 1257 1258 1264 1266 1270 1271 1272 1273 1274 1275 1276 1277 1283 1284 1285 1289 1291 1292 1293 1296 1298 1299 1306 1307 1308 1312 1314 1315 1316 1319 1321 1322 1324 1329 1330 1331 1335 1337 1338 1339 1342 1344 1345 1347 1349 1350 1352 1353 1354 1358 1360 1361 1362 1365 1367 1368 1370 1372 1373 1374 1375 1376 1377 1381 1383 1384 1385 1388 1390 1391 1393 1395 1396 1397 1398 1404 1406 1407 1408 1411 1413 1414 1416 1418 1419 1420 1421 1425 1427 1429 1430 1431 1434 1436 1437 1439 1441 1442 1443 1444 1448 1449 1452 1453 1454 1457 1459 1460 1462 1464 1465 1466 1467 1471 1472 1474 1475 1476 1477 1480 1482 1483 1485 1487 1488 1489 1490 1494 1495 1497 1498 1500 1503 1505 1506 1508 1510 1511 1512 1513 1517 1518 1520 1521 1523 1526 1528 1529 1531 1533 1534 1535 1536 1540 1541 1543 1544 1546 1549 1551 1552 1554 1556 1557 1558 1559 1563 1564 1566 1567 1569 1572 1574 1575 1577 1579 1580 1581 1582 1586 1587 1589 1590 1592 1595 1597 1598 1599 1602 1603 1604 1605 1609 1610 1612 1613 1615 1618 1620 1621 1622 1625 1626 1627 1628 1632 1633 1635 1636 1638 1641 1643 1644 1645 1648 1649 1651 1655 1656 1658 1659 1661 1664 1666 1667 1668 1671 1672 1678 1679 1681 1682 1684 1687 1689 1690 1691 1694 1695 1699 1701 1702 1703 1704 1705 1706 1708 1709 1712 1713 1715 1718 1720 1725 1727 1728 1729 1731 1732 1733 1734 1738 1739 1744 1745 1746 1749 1751 1753 1755 1756 1757 1760 1761 1762 1763 1766 1768 1773 1775 1776 1778 1779 1781 1782 1783 1785 1786 1788 1789 1790 1791 1792 1793 1795 1798 1802 1805 1806 1807 1809 1810 1811 1815 1816 1818 1819 1821 1822 1823 1825 1827 1830 1833 1836 1840 1843 1844 1848 1850 1851 1852 1860 1863 1867 1868 1869 1870 1871 1872 1873 1874 1876 1877 1879 1881 1883 1884 1886 1887 1888 1892 1894 1897 1901 1906 1907 1908 1909 1911 1912 1914 1915 1916 1917 1918 1919 1920 1921 1922 1923 1926 1927 1929 1930 1933 1935 1937 1939 1942 1944 1945 1947 1948 1950 1951 1954 1955 1956 1957 1958 1961 1962 1963 1970 1971 1972 1975 1976 1977 1978 1979 1983 1985 1986 1988 1990 1996 1997 1998 1999 2000 0
x 1012 1013 1017 1018 1019 1021 1022 1025 1026 1027 1030 1031 1033 1035 1037 1038 1039 1040 1041 1047 1053 1054 1056 1057 1058 1061 1065 1066 1067 1069 1070 1072 1074 1076 1077 1080 1081 1085 1087 1088 1089 1091 1095 1098 1104 1109 1110 1112 1115 1116 1117 1118 1122 1123 1124 1125 1151 1156 1157 1159 1162 1163 1164 1165 1169 1170 1171 1172 1173 1179 1181 1182 1183 1185 1189 1192 1197 1199 1200 1202 1206 1207 1208 1210 1211 1213 1215 1217 1218 1219 1221 1222 1223 1225 1228 1230 1233 1235 1237 1238 1240 1243 1246 1251 1252 1255 1256 1259 1263 1265 1267 1268 1272 1276 1282 1283 1284 1288 1290 1291 1292 1295 1297 1298 1300 1305 1306 1307 1311 1313 1314 1315 1318 1320 1321 1323 1325 1328 1329 1330 1334 1336 1337 1338 1341 1343 1344 1346 1348 1349 1350 1351 1352 1353 1357 1359 1360 1361 1364 1366 1367 1369 1371 1372 1373 1374 1376 1380 1382 1383 1384 1387 1389 1390 1392 1394 1395 1396 1397 1403 1405 1406 1407 1410 1412 1413 1415 1417 1418 1419 1420 1424 1425 1426 1428 1429 1430 1433 1435 1436 1438 1440 1441 1442 1443 1447 1448 1450 1451 1452 1453 1456 1458 1459 1461 1463 1464 1465 1466 1470 1471 1473 1474 1476 1479 1481 1482 1484 1486 1487 1488 1489 1493 1494 1496 1497 1499 1502 1504 1505 1507 1509 1510 1511 1512 1516 1517 1519 1520 1522 1525 1527 1528 1530 1532 1533 1534 1535 1539 1540 1542 1543 1545 1548 1550 1551 1553 1555 1556 1557 1558 1562 1563 1565 1566 1568 1571 1573 1574 1575 1576 1578 1579 1580 1581 1585 1586 1588 1589 1591 1594 1596 1597 1598 1601 1602 1603 1604 1608 1609 1611 1612 1614 1617 1619 1620 1621 1624 1625 1626 1627 1631 1632 1634 1635 1637 1640 1642 1643 1644 1647 1648 1654 1655 1657 1658 1660 1663 1665 1666 1667 1670 1671 1675 1677 1678 1680 1681 1683 1686 1688 1689 1690 1693 1694 1698 1701 1702 1703 1704 1705 1706 1707 1708 1709 1710 1711 1712 1713 1716 1718 1719 1720 1722 1723 1727 1728 1729 1731 1735 1736 1738 1742 1744 1747 1748 1752 1753 1755 1756 1757 1758 1759 1764 1765 1766 1771 1779 1780 1781 1782 1788 1790 1791 1792 1793 1798 1800 1802 1805 1807 1808 1810 1812 1813 1814 1816 1818 1820 1821 1823 1824 1825 1826 1827 1829 1830 1832 1833 1834 1835 1836 1837 1838 1839 1840 1845 1846 1847 1856 1857 1861 1862 1863 1865 1867 1871 1873 1874 1876 1877 1880 1881 1882 1883 1885 1889 1895 1897 1898 1902 1903 1907 1908 1910 1911 1912 1914 1916 1918 1920 1922 1924 1925 1927 1928 1930 1932 1933 1934 1935 1936 1937 1938 1939 1954 1955 1956 1959 1960 1964 1965 1966 1970 1971 1972 1973 1974 1977 1978 1981 1982 1984 1985 1986 1987 1993 1994 1998 1999 2000 0
x 1008 1010 1013 1014 1017 1020 1021 1023 1025 1026 1029 1034 1035 1036 1037 1038 1039 1040 1042 1043 1044 1049 1051 1053 1055 1056 1057 1060 1061 1063 1064 1071 1074 1075 1079 1080 1084 1085 1086 1088 1089 1092 1093 1094 1098 1103 1108 1113 1115 1123 1124 1125 1133 1135 1137 1138 1140 1141 1145 1146 1150 1155 1156 1157 1158 1159 1163 1165 1168 1171 1172 1174 1178 1180 1182 1183 1184 1185 1186 1189 1191 1193 1194 1196 1201 1206 1213 1214 1216 1220 1221 1223 1225 1227 1231 1232 1233 1239 1241 1245 1246 1247 1248 1249 1250 1251 1253 1254 1257 1260 1261 1262 1264 1265 1267 1270 1272 1273 1275 1281 1282 1283 1287 1289 1290 1291 1294 1296 1297 1299 1304 1305 1306 1310 1312 1313 1314 1317 1319 1320 1322 1324 1325 1327 1328 1329 1333 1335 1336 1337 1340 1342 1343 1345 1347 1348 1349 1350 1351 1352 1356 1358 1359 1360 1363 1365 1366 1368 1370 1371 1372 1373 1379 1381 1382 1383 1386 1388 1389 1391 1393 1394 1395 1396 1400 1402 1404 1405 1406 1409 1411 1412 1414 1416 1417 1418 1419 1423 1424 1427 1428 1429 1432 1434 1435 1437 1439 1440 1441 1442 1446 1447 1449 1450 1451 1452 1455 1457 1458 1460 1462 1463 1464 1465 1469 1470 1472 1473 1475 1478 1480 1481 1483 1485 1486 1487 1488 1492 1493 1495 1496 1498 1501 1503 1504 1506 1508 1509 1510 1511 1515 1516 1518 1519 1521 1524 1526 1527 1529 1531 1532 1533 1534 1538 1539 1541 1542 1544 1547 1549 1550 1552 1554 1555 1556 1557 1561 1562 1564 1565 1567 1570 1572 1573 1574 1577 1578 1579 1580 1584 1585 1587 1588 1590 1593 1595 1596 1597 1600 1601 1602 1603 1607 1608 1610 1611 1613 1616 1618 1619 1620 1623 1624 1626 1630 1631 1633 1634 1636 1639 1641 1642 1643 1646 1647 1653 1654 1656 1657 1659 1662 1664 1665 1666 1669 1670 1674 1676 1677 1679 1680 1682 1685 1687 1688 1689 1692 1693 1697 1700 1702 1704 1705 1708 1711 1713 1714 1715 1717 1718 1720 1721 1726 1727 1730 1731 1732 1734 1736 1737 1738 1739 1740 1741 1742 1743 1744 1745 1746 1747 1750 1752 1753 1755 1765 1766 1768 1773 1774 1777 1779 1782 1784 1786 1790 1792 1793 1794 1796 1798 1799 1801 1803 1807 1808 1809 1810 1813 1816 1817 1818 1823 1826 1827 1829 1830 1831 1835 1836 1837 1838 1840 1842 1845 1849 1850 1852 1853 1854 1855 1858 1859 1860 1865 1870 1871 1873 1874 1875 1878 1879 1881 1883 1886 1889 1891 1892 1894 1896 1897 1899 1900 1901 1904 1907 1908 1911 1912 1913 1914 1918 1919 1922 1927 1928 1929 1930 1931 1934 1935 1938 1939 1940 1943 1945 1946 1948 1950 1952 1954 1957 1959 1961 1963 1964 1965 1966 1968 1970 1971 1972 1973 1975 1976 1977 1983 1986 1989 1990 1994 1995 2000 0
x -1001 1012 1017 1018 1020 1023 1024 1025 1026 1027 1029 1033 1035 1036 1040 1042 1044 1046 1048 1050 1051 1052 1055 1056 1060 1062 1063 1064 1066 1070 1073 1079 1084 1085 1087 1090 1091 1092 1093 1097 1098 1099 1100 1126 1131 1132 1134 1137 1138 1139 1140 1144 1145 1146 1147 1148 1154 1156 1157 1158 1160 1164 1167 1172 1174 1175 1177 1181 1182 1183 1185 1186 1188 1190 1192 1193 1194 1196 1197 1198 1200 1203 1205 1208 1210 1212 1213 1215 1218 1221 1226 1227 1230 1231 1234 1238 1240 1242 1243 1247 1251 1252 1253 1258 1259 1260 1261 1263 1264 1267 1268 1270 1271 1273 1274 1280 1281 1282 1286 1288 1289 1290 1293 1295 1296 1298 1300 1303 1304 1305 1309 1311 1312 1313 1316 1318 1319 1321 1323 1324 1325 1326 1327 1328 1332 1334 1335 1336 1339 1341 1342 1344 1346 1347 1348 1349 1351 1355 1357 1358 1359 1362 1364 1365 1367 1369 1370 1371 1372 1378 1380 1381 1382 1385 1387 1388 1390 1392 1393 1394 1395 1399 1400 1401 1403 1404 1405 1408 1410 1411 1413 1415 1416 1417 1418 1422 1423 1425 1426 1427 1428 1431 1433 1434 1436 1438 1439 1440 1441 1445 1446 1448 1449 1451 1454 1456 1457 1459 1461 1462 1463 1464 1468 1469 1471 1472 1474 1477 1479 1480 1482 1484 1485 1486 1487 1491 1492 1494 1495 1497 1500 1502 1503 1505 1507 1508 1509 1510 1514 1515 1517 1518 1520 1523 1525 1526 1528 1530 1531 1532 1533 1537 1538 1540 1541 1543 1546 1548 1549 1550 1551 1553 1554 1555 1556 1560 1561 1563 1564 1566 1569 1571 1572 1573 1576 1577 1578 1579 1583 1584 1586 1587 1589 1592 1594 1595 1596 1599 1600 1601 1602 1606 1607 1609 1610 1612 1615 1617 1618 1619 1622 1623 1629 1630 1632 1633 1635 1638 1640 1641 1642 1645 1646 1650 1652 1653 1655 1656 1658 1661 1663 1664 1665 1668 1669 1673 1676 1678 1679 1681 1684 1686 1687 1688 1691 1692 1696 1699 1700 1701 1703 1704 1705 1707 1708 1709 1710 1714 1715 1720 1721 1722 1726 1728 1730 1732 1733 1734 1737 1738 1739 1740 1743 1745 1747 1751 1753 1754 1756 1757 1759 1760 1761 1763 1764 1766 1767 1768 1769 1770 1771 1772 1774 1777 1781 1784 1785 1786 1788 1789 1791 1795 1796 1798 1799 1801 1802 1803 1805 1807 1811 1814 1817 1821 1824 1825 1829 1830 1832 1833 1834 1842 1845 1850 1851 1852 1853 1854 1855 1856 1857 1859 1860 1862 1864 1865 1867 1868 1870 1871 1872 1876 1878 1882 1886 1891 1892 1893 1894 1895 1897 1898 1900 1901 1902 1903 1904 1905 1906 1907 1908 1910 1913 1914 1916 1917 1920 1922 1923 1925 1927 1930 1932 1933 1936 1937 1939 1940 1943 1944 1945 1946 1947 1948 1951 1952 1953 1955 1961 1962 1963 1964 1967 1968 1969 1970 1971 1972 1976 1978 1980 1982 1984 1985 1990 1992 1993 1994 1995 1996 1998 2000 0
x -1008 1009 1011 1013 1014 1016 1018 1019 1020 1022 1023 1026 1028 1030 1031 1034 1037 1039 1041 1046 1048 1054 1055 1059 1060 1061 1063 1064 1067 1068 1069 1073 1078 1083 1088 1090 1098 1099 1100 1108 1110 1112 1113 1115 1116 1120 1121 1125 1130 1131 1132 1133 1134 1138 1140 1143 1146 1147 1149 1153 1155 1157 1158 1159 1160 1161 1164 1166 1168 1169 1171 1176 1181 1188 1189 1191 1195 1196 1198 1200 1202 1206 1207 1208 1214 1216 1220 1221 1222 1223 1224 1225 1226 1228 1229 1232 1235 1236 1237 1239 1240 1242 1245 1247 1248 1250 1251 1254 1256 1258 1262 1263 1264 1265 1266 1267 1271 1273 1275 1279 1280 1281 1285 1287 1288 1289 1292 1294 1295 1297 1299 1300 1302 1303 1304 1308 1310 1311 1312 1315 1317 1318 1320 1322 1323 1324 1325 1326 1327 1331 1333 1334 1335 1338 1340 1341 1343 1345 1346 1347 1348 1354 1356 1357 1358 1361 1363 1364 1366 1368 1369 1370 1371 1375 1377 1379 1380 1381 1384 1386 1387 1389 1391 1392 1393 1394 1398 1399 1402 1403 1404 1407 1409 1410 1412 1414 1415 1416 1417 1421 1422 1424 1425 1426 1427 1430 1432 1433 1435 1437 1438 1439 1440 1444 1445 1447 1448 1450 1453 1455 1456 1458 1460 1461 1462 1463 1467 1468 1470 1471 1473 1476 1478 1479 1481 1483 1484 1485 1486 1490 1491 1493 1494 1496 1499 1501 1502 1504 1506 1507 1508 1509 1513 1514 1516 1517 1519 1522 1524 1525 1527 1529 1530 1531 1532 1536 1537 1539 1540 1542 1545 1547 1548 1549 1552 1553 1554 1555 1559 1560 1562 1563 1565 1568 1570 1571 1572 1575 1576 1577 1578 1582 1583 1585 1586 1588 1591 1593 1594 1595 1598 1599 1601 1605 1606 1608 1609 1611 1614 1616 1617 1618 1621 1622 1628 1629 1631 1632 1634 1637 1639 1640 1641 1644 1645 1649 1651 1652 1654 1655 1657 1660 1662 1663 1664 1667 1668 1672 1675 1677 1678 1680 1683 1685 1686 1687 1690 1691 1695 1698 1699 1703 1704 1705 1707 1711 1712 1714 1718 1720 1723 1725 1729 1730 1732 1733 1734 1735 1736 1741 1742 1743 1749 1757 1758 1759 1760 1766 1768 1770 1771 1772 1777 1779 1781 1784 1786 1787 1789 1792 1793 1794 1796 1798 1800 1801 1803 1804 1805 1806 1807 1809 1810 1811 1813 1814 1815 1816 1817 1818 1819 1820 1821 1826 1827 1828 1838 1839 1843 1844 1845 1848 1850 1854 1856 1857 1859 1860 1863 1864 1865 1866 1867 1869 1873 1879 1880 1882 1883 1887 1888 1892 1893 1895 1896 1897 1898 1900 1902 1904 1906 1908 1909 1911 1912 1914 1915 1917 1919 1920 1921 1922 1923 1924 1925 1926 1927 1934 1943 1944 1946 1949 1950 1954 1955 1956 1957 1961 1962 1963 1965 1966 1969 1970 1972 1974 1975 1977 1978 1979 1980 1981 1985 1988 1989 1994 1995 1996 1997 1998 0
x -1011 1016 1021 1023 1027 1029 1032 1033 1034 1038 1044 1046 1047 1049 1054 1059 1060 1062 1065 1066 1067 1068 1072 1073 1074 1075 1101 1106 1107 1109 1112 1113 1114 1115 1119 1120 1121 1122 1123 1129 1131 1132 1133 1135 1139 1142 1147 1149 1150 1152 1156 1157 1158 1160 1161 1163 1165 1167 1168 1169 1171 1172 1173 1175 1178 1180 1183 1185 1187 1188 1190 1193 1196 1201 1202 1205 1206 1209 1213 1215 1217 1218 1222 1226 1227 1228 1233 1234 1235 1236 1238 1239 1242 1243 1245 1246 1248 1249 1253 1261 1262 1263 1264 1267 1268 1269 1270 1271 1275 1278 1279 1280 1284 1286 1287 1288 1291 1293 1294 1296 1298 1299 1300 1301 1302 1303 1307 1309 1310 1311 1314 1316 1317 1319 1321 1322 1323 1324 1326 1330 1332 1333 1334 1337 1339 1340 1342 1344 1345 1346 1347 1353 1355 1356 1357 1360 1362 1363 1365 1367 1368 1369 1370 1374 1375 1376 1378 1379 1380 1383 1385 1386 1388 1390 1391 1392 1393 1397 1398 1400 1401 1402 1403 1406 1408 1409 1411 1413 1414 1415 1416 1420 1421 1423 1424 1426 1429 1431 1432 1434 1436 1437 1438 1439 1443 1444 1446 1447 1449 1452 1454 1455 1457 1459 1460 1461 1462 1466 1467 1469 1470 1472 1475 1477 1478 1480 1482 1483 1484 1485 1489 1490 1492 1493 1495 1498 1500 1501 1503 1505 1506 1507 1508 1512 1513 1515 1516 1518 1521 1523 1524 1525 1526 1528 1529 1530 1531 1535 1536 1538 1539 1541 1544 1546 1547 1548 1551 1552 1553 1554 1558 1559 1561 1562 1564 1567 1569 1570 1571 1574 1575 1576 1577 1581 1582 1584 1585 1587 1590 1592 1593 1594 1597 1598 1604 1605 1607 1608 1610 1613 1615 1616 1617 1620 1621 1625 1627 1628 1630 1631 1633 1636 1638 1639 1640 1643 1644 1648 1651 1653 1654 1656 1659 1661 1662 1663 1666 1667 1671 1674 1675 1676 1677 1679 1682 1684 1685 1686 1689 1690 1694 1697 1698 1700 1702 1703 1706 1707 1708 1710 1712 1713 1714 1715 1716 1717 1718 1719 1720 1721 1722 1723 1724 1727 1729 1730 1732 1742 1743 1745 1751 1752 1755 1757 1760 1762 1764 1768 1769 1771 1772 1773 1775 1777 1778 1780 1782 1786 1787 1788 1789 1793 1796 1797 1798 1803 1806 1807 1809 1810 1811 1812 1816 1817 1818 1819 1821 1823 1826 1831 1832 1834 1835 1836 1837 1840 1841 1842 1848 1853 1854 1856 1857 1858 1861 1862 1864 1865 1867 1870 1873 1875 1876 1878 1881 1882 1884 1885 1886 1889 1892 1893 1897 1898 1899 1900 1904 1905 1908 1909 1914 1915 1916 1917 1918 1921 1923 1926 1927 1928 1931 1933 1934 1935 1937 1939 1941 1943 1945 1947 1949 1951 1953 1954 1956 1957 1959 1961 1962 1963 1965 1967 1968 1969 1972 1976 1979 1980 1983 1984 1989 1991 1994 1997 1998 1999 2000 0
x 1009 1010 1013 1015 1016 1017 1019 1022 1025 1026 1031 1032 1034 1039 1042 1048 1054 1057 1058 1059 1062 1065 1068 1070 1072 1073 1078 1079 1082 1084 1087 1088 1093 1095 1097 1099 1100 1103 1104 1107 1108 1109 1110 1115 1116 1118 1121 1122 1124 1128 1129 1130 1131 1135 1138 1141 1154 1156 1157 1158 1159 1161 1163 1164 1168 1169 1171 1176 1179 1182 1183 1184 1186 1191 1193 1194 1195 1198 1200 1201 1202 1204 1206 1209 1211 1214 1218 1219 1221 1222 1224 1227 1228 1231 1232 1234 1235 1237 1240 1242 1243 1244 1245 1246 1248 1249 1250 1251 1252 1253 1254 1257 1258 1259 1260 1263 1264 1266 1268 1269 1270 1274 1277 1280 1281 1282 1283 1284 1286 1287 1292 1295 1299 1300 1303 1304 1305 1306 1307 1309 1310 1315 1318 1322 1323 1326 1327 1328 1329 1330 1332 1333 1338 1341 1345 1346 1351 1352 1353 1355 1356 1361 1364 1368 1369 1375 1376 1378 1379 1384 1387 1391 1392 1398 1399 1400 1401 1402 1407 1410 1414 1415 1421 1422 1423 1430 1433 1437 1438 1444 1445 1446 1450 1453 1456 1460 1461 1467 1468 1469 1473 1475 1476 1479 1483 1484 1490 1491 1492 1496 1498 1499 1500 1502 1506 1507 1513 1514 1515 1519 1521 1522 1523 1529 1530 1536 1537 1538 1542 1544 1545 1546 1549 1552 1553 1559 1560 1561 1565 1567 1568 1569 1572 1574 1575 1576 1582 1583 1584 1588 1590 1591 1592 1595 1597 1598 1600 1605 1606 1607 1611 1613 1614 1615 1618 1620 1621 1623 1625 1628 1629 1630 1634 1636 1637 1638 1641 1643 1644 1646 1648 1649 1650 1651 1652 1653 1657 1659 1660 1661 1664 1666 1667 1669 1671 1672 1673 1674 1676 1680 1682 1683 1684 1687 1689 1690 1692 1694 1695 1696 1697 1703 1705 1707 1710 1711 1713 1714 1716 1717 1719 1720 1722 1723 1724 1725 1726 1730 1733 1734 1735 1736 1740 1741 1742 1743 1747 1751 1754 1756 1757 1759 1760 1762 1764 1765 1767 1768 1769 1772 1774 1776 1780 1781 1783 1791 1792 1793 1794 1795 1797 1798 1803 1804 1805 1809 1813 1814 1815 1816 1817 1818 1820 1821 1824 1825 1827 1828 1829 1830 1832 1834 1835 1836 1839 1843 1844 1849 1852 1854 1856 1860 1861 1862 1865 1866 1867 1868 1869 1870 1871 1872 1873 1874 1875 1876 1877 1880 1883 1884 1885 1887 1891 1892 1894 1896 1900 1901 1903 1904 1905 1906 1907 1911 1919 1920 1921 1922 1923 1924 1925 1930 1932 1934 1936 1937 1938 1940 1942 1944 1945 1946 1948 1949 1950 1951 1952 1953 1954 1955 1964 1965 1967 1971 1973 1974 1975 1977 1981 1982 1986 1987 1988 1990 1992 1993 1995 1996 1997 2000 0
x -1000 1011 1013 1015 1016 1017 1019 1020 1025 1026 1029 1031 1034 1035 1037 1038 1041 1045 1047 1050 1054 1055 1058 1061 1063 1067 1069 1071 1072 1073 1075 1079 1080 1083 1086 1088 1092 1094 1096 1097 1098 1100 1101 1104 1105 1106 1107 1108 1109 1111 1112 1114 1115 1117 1120 1125 1126 1130 1134 1135 1136 1137 1140 1145 1147 1149 1151 1152 1155 1156 1157 1158 1159 1162 1163 1167 1168 1169 1170 1171 1173 1174 1175 1176 1177 1178 1181 1182 1184 1185 1190 1192 1194 1195 1198 1199 1200 1203 1205 1207 1210 1213 1218 1219 1220 1222 1223 1224 1225 1226 1227 1230 1232 1233 1234 1236 1239 1242 1244 1246 1247 1250 1251 1252 1253 1255 1257 1258 1259 1262 1263 1268 1270 1272 1276 1279 1280 1281 1282 1283 1285 1286 1291 1294 1298 1299 1302 1303 1304 1305 1306 1308 1309 1314 1317 1321 1322 1326 1327 1328 1329 1331 1332 1337 1340 1344 1345 1351 1352 1354 1355 1360 1363 1367 1368 1374 1375 1377 1378 1383 1386 1390 1391 1397 1398 1399 1401 1406 1409 1413 1414 1420 1421 1422 1429 1432 1436 1437 1443 1444 1445 1449 1452 1455 1459 1460 1466 1467 1468 1472 1474 1475 1478 1482 1483 1489 1490 1491 1495 1497 1498 1499 1501 1505 1506 1512 1513 1514 1518 1520 1521 1522 1525 1528 1529 1535 1536 1537 1541 1543 1544 1545 1548 1550 1551 1552 1558 1559 1560 1564 1566 1567 1568 1571 1573 1574 1581 1582 1583 1587 1589 1590 1591 1594 1596 1597 1599 1604 1605 1606 1610 1612 1613 1614 1617 1619 1620 1622 1624 1625 1627 1628 1629 1633 1635 1636 1637 1640 1642 1643 1645 1647 1648 1649 1650 1651 1652 1656 1658 1659 1660 1663 1665 1666 1668 1670 1671 1672 1673 1679 1681 1682 1683 1686 1688 1689 1691 1693 1694 1695 1696 1700 1702 1705 1708 1716 1723 1726 1728 1731 1733 1735 1739 1741 1742 1743 1744 1746 1748 1749 1752 1754 1755 1757 1758 1761 1762 1764 1765 1767 1770 1774 1775 1776 1779 1780 1785 1786 1789 1790 1791 1799 1804 1805 1806 1809 1810 1811 1813 1815 1816 1817 1819 1826 1830 1831 1832 1834 1839 1841 1843 1844 1845 1846 1847 1851 1853 1854 1855 1857 1858 1859 1860 1862 1866 1868 1869 1872 1875 1877 1878 1879 1882 1883 1886 1887 1888 1890 1892 1893 1894 1895 1898 1900 1901 1903 1913 1914 1917 1919 1922 1924 1925 1926 1928 1930 1931 1933 1937 1940 1941 1942 1946 1947 1951 1952 1953 1954 1957 1958 1960 1961 1962 1963 1965 1970 1971 1973 1975 1978 1980 1981 1983 1984 1985 1987 1988 1989 1990 1995 1998 0
x 918 990 998 -1049 0
x 837 909 917 981 989 997 -1048 0
x 756 828 836 900 908 916 972 980 988 996 -1047 0
x 675 747 755 819 827 835 891 899 907 915 963 971 979 987 995 -1046 0
x 594 666 674 738 746 754 810 818 826 834 882 890 898 906 914 954 962 970 978 986 994 -1045 0
x 513 585 593 657 665 673 729 737 745 753 801 809 817 825 833 873 881 889 897 905 913 945 953 961 969 977 985 993 -1044 0
x 432 504 512 576 584 592 648 656 664 672 720 728 736 744 752 792 800 808 816 824 832 864 872 880 888 896 904 912 936 944 952 960 968 976 984 992 -1043 0
x 351 423 431 495 503 511 567 575 583 591 639 647 655 663 671 711 719 727 735 743 751 783 791 799 807 815 823 831 855 863 871 879 887 895 903 911 927 935 943 951 959 967 975 983 991 -1042 0
x 342 350 414 422 430 486 494 502 510 558 566 574 582 590 630 638 646 654 662 670 702 710 718 726 734 742 750 774 782 790 798 806 814 822 830 846 854 862 870 878 886 894 902 910 926 934 942 950 958 966 974 982 -1041 0
x 333 341 349 405 413 421 429 477 485 493 501 509 549 557 565 573 581 589 621 629 637 645 653 661 669 693 701 709 717 725 733 741 749 765 773 781 789 797 805 813 821 829 845 853 861 869 877 885 893 901 925 933 941 949 957 965 973 -1040 0
x 324 332 340 348 396 404 412 420 428 468 476 484 492 500 508 540 548 556 564 572 580 588 612 620 628 636 644 652 660 668 684 692 700 708 716 724 732 740 748 764 772 780 788 796 804 812 820 844 852 860 868 876 884 892 924 932 940 948 956 964 -1039 0
x 315 323 331 339 347 387 395 403 411 419 427 459 467 475 483 491 499 507 531 539 547 555 563 571 579 587 603 611 619 627 635 643 651 659 667 683 691 699 707 715 723 731 739 763 771 779 787 795 803 811 843 851 859 867 875 883 923 931 939 947 955 -1038 0
x 306 314 322 330 338 346 378 386 394 402 410 418 426 450 458 466 474 482 490 498 506 522 530 538 546 554 562 570 578 586 602 610 618 626 634 642 650 658 682 690 698 706 714 722 730 762 770 778 786 794 802 842 850 858 866 874 922 930 938 946 -1037 0
x 297 305 313 321 329 337 345 369 377 385 393 401 409 417 425 441 449 457 465 473 481 489 497 505 521 529 537 545 553 561 569 577 601 609 617 625 633 641 649 681 689 697 705 713 721 761 769 777 785 793 841 849 857 865 921 929 937 -1036 0
x 288 296 304 312 320 328 336 344 360 368 376 384 392 400 408 416 424 440 448 456 464 472 480 488 496 520 528 536 544 552 560 568 600 608 616 624 632 640 680 688 696 704 712 760 768 776 784 840 848 856 920 928 -1035 0
x 279 287 295 303 311 319 327 335 343 359 367 375 383 391 399 407 415 439 447 455 463 471 479 487 519 527 535 543 551 559 599 607 615 623 631 679 687 695 703 759 767 775 839 847 919 -1034 0
x 278 286 294 302 310 318 326 334 358 366 374 382 390 398 406 438 446 454 462 470 478 518 526 534 542 550 598 606 614 622 678 686 694 758 766 838 -1033 0
x 277 285 293 301 309 317 325 357 365 373 381 389 397 437 445 453 461 469 517 525 533 541 597 605 613 677 685 757 -1032 0
x 276 284 292 300 308 316 356 364 372 380 388 436 444 452 460 516 524 532 596 604 676 -1031 0
x 275 283 291 299 307 355 363 371 379 435 443 451 515 523 595 -1030 0
x 274 282 290 298 354 362 370 434 442 514 -1029 0
x 273 281 289 353 361 433 -1028 0
x 272 280 352 -1027 0
x 271 -1026 0
x 108 189 270 -1025 0
x 99 107 180 188 261 269 -1024 0
x 90 98 106 171 179 187 252 260 268 -1023 0
x 81 89 97 105 162 170 178 186 243 251 259 267 -1022 0
x 72 80 88 96 104 153 161 169 177 185 234 242 250 258 266 -1021 0
x 63 71 79 87 95 103 144 152 160 168 176 184 225 233 241 249 257 265 -1020 0
x 54 62 70 78 86 94 102 135 143 151 159 167 175 183 216 224 232 240 248 256 264 -1019 0
x 45 53 61 69 77 85 93 101 126 134 142 150 158 166 174 182 207 215 223 231 239 247 255 263 -1018 0
x 36 44 52 60 68 76 84 92 100 117 125 133 141 149 157 165 173 181 198 206 214 222 230 238 246 254 262 -1017 0
x 35 43 51 59 67 75 83 91 116 124 132 140 148 156 164 172 197 205 213 221 229 237 245 253 -1016 0
x 34 42 50 58 66 74 82 115 123 131 139 147 155 163 196 204 212 220 228 236 244 -1015 0
x 33 41 49 57 65 73 114 122 130 138 146 154 195 203 211 219 227 235 -1014 0
x 32 40 48 56 64 113 121 129 137 145 194 202 210 218 226 -1013 0
x 31 39 47 55 112 120 128 136 193 201 209 217 -1012 0
x 30 38 46 111 119 127 192 200 208 -1011 0
x 29 37 110 118 191 199 -1010 0
x 28 109 190 -1009 0
x 9 18 27 -1008 0
x 8 17 26 -1007 0
x 7 16 25 -1006 0
x 6 15 24 -1005 0
x 5 14 23 -1004 0
x 4 13 22 -1003 0
x 3 12 21 -1002 0
x 999 -1050 0
x 2 11 20 -1001 0
x 1 10 19 -1000 0
-917 -2003 2004 0
-917 989 0
2003 0
-2002 -819 979 0
989 -2001 2002 0
2001 0
-998 918 0
-2004 -835 979 0
-990 998 0
989 -2003 2004 0
-909 -2001 2002 0
-909 989 0
-990 918 0
